Na36  La12  I72                         
   1.5500000000000000     
    15.0597699078164453    0.0000000000000000   -0.2211847761745076
     0.0000000000000000    9.0521167224503074    0.0000000000000000
    -1.0733156737418115    0.0000000000000000   10.3291661781254813
  Na              La              I             
    36    12    72
Direct
  0.5000000000000000  0.3383565082372115  0.7500000000000000
  0.5000000000000000  0.6616434917627885  0.2500000000000000
  0.2044380936622119  0.1453948501771123  0.4348040644103150
  0.7955619213377858  0.1453948501771123  0.0651959435896856
  0.7955619213377858  0.8546051348228900  0.5651959655896945
  0.2044380936622119  0.8546051348228900  0.9348040344103055
  0.6668656903221901  0.8159520609764641  0.0371183417454972
  0.3331342796778145  0.8159520609764641  0.4628816662545034
  0.3331342796778145  0.1840479090235334  0.9628816662545034
  0.6668656903221901  0.1840479090235334  0.5371183337454966
  0.4946972900157647  0.1614202140275012  0.4886493904534390
  0.5053026799842257  0.1614202140275012  0.0113505945465633
  0.5053026799842257  0.8385797709724940  0.5113505795465656
  0.4946972900157647  0.8385797709724940  0.9886494204534344
  0.3458545924608529  0.6662987476765494  0.7319881798001191
  0.6541453775391517  0.6662987476765494  0.7680118201998809
  0.6541453775391517  0.3337012523234506  0.2680117901998713
  0.3458545924608529  0.3337012523234506  0.2319882098001287
  0.0000000000000000  0.8383565082372115  0.7500000000000000
  0.0000000000000000  0.1616435067627933  0.2500000000000000
  0.7044380786622142  0.6453948651771100  0.4348040644103150
  0.2955619213377858  0.6453948651771100  0.0651959435896856
  0.2955619213377858  0.3546051648228854  0.5651959655896945
  0.7044380786622142  0.3546051648228854  0.9348040344103055
  0.1668657203221926  0.3159520909764666  0.0371183417454972
  0.8331342496778191  0.3159520909764666  0.4628816662545034
  0.8331342496778191  0.6840479390235359  0.9628816662545034
  0.1668657203221926  0.6840479390235359  0.5371183337454966
  0.9946973200157743  0.6614202290275060  0.4886493904534390
  0.0053026989842238  0.6614202290275060  0.0113505945465633
  0.0053026989842238  0.3385797999725000  0.5113505795465656
  0.9946973200157743  0.3385797999725000  0.9886494204534344
  0.8458546224608483  0.1662987626765471  0.7319881798001191
  0.1541453925391494  0.1662987626765471  0.7680118201998809
  0.1541453925391494  0.8337012523234506  0.2680117901998713
  0.8458546224608483  0.8337012523234506  0.2319882098001287
  0.0000000000000000  0.0000000000000000  0.0000000000000000
  0.6575664646190447  0.0029081985480985  0.7842570300707834
  0.3424335053809529  0.0029081985480985  0.7157429699292166
  0.3424335053809529  0.9970918014519015  0.2157429849292214
  0.6575664646190447  0.9970918014519015  0.2842570300707834
  0.0000000000000000  0.0000000000000000  0.5000000000000000
  0.5000000000000000  0.5000000000000000  0.0000000000000000
  0.1575664946190471  0.5029081985480985  0.7842570300707834
  0.8424335353809553  0.5029081985480985  0.7157429699292166
  0.8424335353809553  0.4970918014519015  0.2157429849292214
  0.1575664946190471  0.4970918014519015  0.2842570300707834
  0.5000000000000000  0.5000000000000000  0.5000000000000000
  0.5827635152317399  0.8364682449102574  0.1824037485678502
  0.9206235081241942  0.0029545735483438  0.3277310728655891
  0.0793764618758033  0.0029545735483438  0.1722689421344086
  0.0793764618758033  0.9970454084516618  0.6722689271344109
  0.9206235081241942  0.9970454084516618  0.8277310728655891
  0.7470162909830691  0.1589904423056296  0.8769290681349915
  0.4172364847682530  0.1635317550897426  0.8175962664321474
  0.5827635152317399  0.1635317550897426  0.6824037335678526
  0.4265117090314519  0.3304770768251331  0.5699571676686048
  0.4172364847682530  0.8364682449102574  0.3175962664321474
  0.2650936180420516  0.1641935403649271  0.1256213309011898
  0.7349063519579531  0.1641935403649271  0.3743786690988102
  0.7349063519579531  0.8358064746350635  0.8743786390988078
  0.2650936180420516  0.8358064746350635  0.6256213609011922
  0.4126528241669192  0.1575200107936752  0.3158533765264053
  0.5873472058330762  0.1575200107936752  0.1841466234735947
  0.5873472058330762  0.8424799742063200  0.6841466534735972
  0.4126528241669192  0.8424799742063200  0.8158533465264028
  0.7457175906887130  0.9734960458872735  0.1447714424795592
  0.2542824393112824  0.9734960458872735  0.3552285725204385
  0.2542824393112824  0.0265039751127176  0.8552285725204385
  0.2529837090169309  0.8410095576943633  0.1230709318650085
  0.4210597718548144  0.3345380667300333  0.0653812109933440
  0.5789402281451856  0.3345380667300333  0.4346187890066560
  0.5789402281451856  0.6654619032699713  0.9346187600066571
  0.4210597718548144  0.6654619032699713  0.5653812399933429
  0.5734882909685481  0.3304770768251331  0.9300428323313952
  0.7457175906887130  0.0265039751127176  0.6447714274795615
  0.4265117090314519  0.6695229531748623  0.0699571676686048
  0.5734882909685481  0.6695229531748623  0.4300428323314023
  0.5856535350862160  0.0035107635058154  0.4397021228746283
  0.4143464649137911  0.0035107635058154  0.0602978841253758
  0.4143464649137911  0.9964892174941866  0.5602978771253717
  0.5856535350862160  0.9964892174941866  0.9397021228746283
  0.7470162909830691  0.8410095576943633  0.3769290681349915
  0.2529837090169309  0.1589904423056296  0.6230709318650085
  0.0827635002317493  0.3364682449102574  0.1824037485678502
  0.4206235381241967  0.5029545915483382  0.3277310728655891
  0.5793764918758058  0.5029545915483382  0.1722689421344086
  0.5793764918758058  0.4970454384516572  0.6722689271344109
  0.4206235381241967  0.4970454384516572  0.8277310728655891
  0.2470162909830691  0.6589904423056367  0.8769290681349915
  0.9172364847682601  0.6635317550897426  0.8175962664321474
  0.0827635002317493  0.6635317550897426  0.6824037335678526
  0.9265117090314519  0.8304770468251377  0.5699571676686048
  0.9172364847682601  0.3364682449102574  0.3175962664321474
  0.7650936480420469  0.6641935253649365  0.1256213309011898
  0.2349063819579484  0.6641935253649365  0.3743786690988102
  0.2349063819579484  0.3358064446350681  0.8743786390988078
  0.7650936480420469  0.3358064446350681  0.6256213609011922
  0.9126527941669238  0.6575200257936800  0.3158533765264053
  0.0873471838330744  0.6575200257936800  0.1841466234735947
  0.0873471838330744  0.3424800042063225  0.6841466534735972
  0.9126527941669238  0.3424800042063225  0.8158533465264028
  0.2457175606887176  0.4734960158872781  0.1447714424795592
  0.7542824093112870  0.4734960158872781  0.3552285725204385
  0.7542824093112870  0.5265039541127265  0.8552285725204385
  0.7529837090169309  0.3410095576943704  0.1230709318650085
  0.9210597718548144  0.8345380967300287  0.0653812109933440
  0.0789402431451833  0.8345380967300287  0.4346187890066560
  0.0789402431451833  0.1654619182699690  0.9346187600066571
  0.9210597718548144  0.1654619182699690  0.5653812399933429
  0.0734882979685452  0.8304770468251377  0.9300428323313952
  0.2457175606887176  0.5265039541127265  0.6447714274795615
  0.9265117090314519  0.1695229381748646  0.0699571676686048
  0.0734882979685452  0.1695229381748646  0.4300428323314023
  0.0856535350862160  0.5035107825058134  0.4397021228746283
  0.9143464649137840  0.5035107825058134  0.0602978841253758
  0.9143464649137840  0.4964892474941891  0.5602978771253717
  0.0856535350862160  0.4964892474941891  0.9397021228746283
  0.2470162909830691  0.3410095576943704  0.3769290681349915
  0.7529837090169309  0.6589904423056367  0.6230709318650085

  0.00000000E+00  0.00000000E+00  0.00000000E+00
  0.00000000E+00  0.00000000E+00  0.00000000E+00
  0.00000000E+00  0.00000000E+00  0.00000000E+00
  0.00000000E+00  0.00000000E+00  0.00000000E+00
  0.00000000E+00  0.00000000E+00  0.00000000E+00
  0.00000000E+00  0.00000000E+00  0.00000000E+00
  0.00000000E+00  0.00000000E+00  0.00000000E+00
  0.00000000E+00  0.00000000E+00  0.00000000E+00
  0.00000000E+00  0.00000000E+00  0.00000000E+00
  0.00000000E+00  0.00000000E+00  0.00000000E+00
  0.00000000E+00  0.00000000E+00  0.00000000E+00
  0.00000000E+00  0.00000000E+00  0.00000000E+00
  0.00000000E+00  0.00000000E+00  0.00000000E+00
  0.00000000E+00  0.00000000E+00  0.00000000E+00
  0.00000000E+00  0.00000000E+00  0.00000000E+00
  0.00000000E+00  0.00000000E+00  0.00000000E+00
  0.00000000E+00  0.00000000E+00  0.00000000E+00
  0.00000000E+00  0.00000000E+00  0.00000000E+00
  0.00000000E+00  0.00000000E+00  0.00000000E+00
  0.00000000E+00  0.00000000E+00  0.00000000E+00
  0.00000000E+00  0.00000000E+00  0.00000000E+00
  0.00000000E+00  0.00000000E+00  0.00000000E+00
  0.00000000E+00  0.00000000E+00  0.00000000E+00
  0.00000000E+00  0.00000000E+00  0.00000000E+00
  0.00000000E+00  0.00000000E+00  0.00000000E+00
  0.00000000E+00  0.00000000E+00  0.00000000E+00
  0.00000000E+00  0.00000000E+00  0.00000000E+00
  0.00000000E+00  0.00000000E+00  0.00000000E+00
  0.00000000E+00  0.00000000E+00  0.00000000E+00
  0.00000000E+00  0.00000000E+00  0.00000000E+00
  0.00000000E+00  0.00000000E+00  0.00000000E+00
  0.00000000E+00  0.00000000E+00  0.00000000E+00
  0.00000000E+00  0.00000000E+00  0.00000000E+00
  0.00000000E+00  0.00000000E+00  0.00000000E+00
  0.00000000E+00  0.00000000E+00  0.00000000E+00
  0.00000000E+00  0.00000000E+00  0.00000000E+00
  0.00000000E+00  0.00000000E+00  0.00000000E+00
  0.00000000E+00  0.00000000E+00  0.00000000E+00
  0.00000000E+00  0.00000000E+00  0.00000000E+00
  0.00000000E+00  0.00000000E+00  0.00000000E+00
  0.00000000E+00  0.00000000E+00  0.00000000E+00
  0.00000000E+00  0.00000000E+00  0.00000000E+00
  0.00000000E+00  0.00000000E+00  0.00000000E+00
  0.00000000E+00  0.00000000E+00  0.00000000E+00
  0.00000000E+00  0.00000000E+00  0.00000000E+00
  0.00000000E+00  0.00000000E+00  0.00000000E+00
  0.00000000E+00  0.00000000E+00  0.00000000E+00
  0.00000000E+00  0.00000000E+00  0.00000000E+00
  0.00000000E+00  0.00000000E+00  0.00000000E+00
  0.00000000E+00  0.00000000E+00  0.00000000E+00
  0.00000000E+00  0.00000000E+00  0.00000000E+00
  0.00000000E+00  0.00000000E+00  0.00000000E+00
  0.00000000E+00  0.00000000E+00  0.00000000E+00
  0.00000000E+00  0.00000000E+00  0.00000000E+00
  0.00000000E+00  0.00000000E+00  0.00000000E+00
  0.00000000E+00  0.00000000E+00  0.00000000E+00
  0.00000000E+00  0.00000000E+00  0.00000000E+00
  0.00000000E+00  0.00000000E+00  0.00000000E+00
  0.00000000E+00  0.00000000E+00  0.00000000E+00
  0.00000000E+00  0.00000000E+00  0.00000000E+00
  0.00000000E+00  0.00000000E+00  0.00000000E+00
  0.00000000E+00  0.00000000E+00  0.00000000E+00
  0.00000000E+00  0.00000000E+00  0.00000000E+00
  0.00000000E+00  0.00000000E+00  0.00000000E+00
  0.00000000E+00  0.00000000E+00  0.00000000E+00
  0.00000000E+00  0.00000000E+00  0.00000000E+00
  0.00000000E+00  0.00000000E+00  0.00000000E+00
  0.00000000E+00  0.00000000E+00  0.00000000E+00
  0.00000000E+00  0.00000000E+00  0.00000000E+00
  0.00000000E+00  0.00000000E+00  0.00000000E+00
  0.00000000E+00  0.00000000E+00  0.00000000E+00
  0.00000000E+00  0.00000000E+00  0.00000000E+00
  0.00000000E+00  0.00000000E+00  0.00000000E+00
  0.00000000E+00  0.00000000E+00  0.00000000E+00
  0.00000000E+00  0.00000000E+00  0.00000000E+00
  0.00000000E+00  0.00000000E+00  0.00000000E+00
  0.00000000E+00  0.00000000E+00  0.00000000E+00
  0.00000000E+00  0.00000000E+00  0.00000000E+00
  0.00000000E+00  0.00000000E+00  0.00000000E+00
  0.00000000E+00  0.00000000E+00  0.00000000E+00
  0.00000000E+00  0.00000000E+00  0.00000000E+00
  0.00000000E+00  0.00000000E+00  0.00000000E+00
  0.00000000E+00  0.00000000E+00  0.00000000E+00
  0.00000000E+00  0.00000000E+00  0.00000000E+00
  0.00000000E+00  0.00000000E+00  0.00000000E+00
  0.00000000E+00  0.00000000E+00  0.00000000E+00
  0.00000000E+00  0.00000000E+00  0.00000000E+00
  0.00000000E+00  0.00000000E+00  0.00000000E+00
  0.00000000E+00  0.00000000E+00  0.00000000E+00
  0.00000000E+00  0.00000000E+00  0.00000000E+00
  0.00000000E+00  0.00000000E+00  0.00000000E+00
  0.00000000E+00  0.00000000E+00  0.00000000E+00
  0.00000000E+00  0.00000000E+00  0.00000000E+00
  0.00000000E+00  0.00000000E+00  0.00000000E+00
  0.00000000E+00  0.00000000E+00  0.00000000E+00
  0.00000000E+00  0.00000000E+00  0.00000000E+00
  0.00000000E+00  0.00000000E+00  0.00000000E+00
  0.00000000E+00  0.00000000E+00  0.00000000E+00
  0.00000000E+00  0.00000000E+00  0.00000000E+00
  0.00000000E+00  0.00000000E+00  0.00000000E+00
  0.00000000E+00  0.00000000E+00  0.00000000E+00
  0.00000000E+00  0.00000000E+00  0.00000000E+00
  0.00000000E+00  0.00000000E+00  0.00000000E+00
  0.00000000E+00  0.00000000E+00  0.00000000E+00
  0.00000000E+00  0.00000000E+00  0.00000000E+00
  0.00000000E+00  0.00000000E+00  0.00000000E+00
  0.00000000E+00  0.00000000E+00  0.00000000E+00
  0.00000000E+00  0.00000000E+00  0.00000000E+00
  0.00000000E+00  0.00000000E+00  0.00000000E+00
  0.00000000E+00  0.00000000E+00  0.00000000E+00
  0.00000000E+00  0.00000000E+00  0.00000000E+00
  0.00000000E+00  0.00000000E+00  0.00000000E+00
  0.00000000E+00  0.00000000E+00  0.00000000E+00
  0.00000000E+00  0.00000000E+00  0.00000000E+00
  0.00000000E+00  0.00000000E+00  0.00000000E+00
  0.00000000E+00  0.00000000E+00  0.00000000E+00
  0.00000000E+00  0.00000000E+00  0.00000000E+00
  0.00000000E+00  0.00000000E+00  0.00000000E+00
  0.00000000E+00  0.00000000E+00  0.00000000E+00
  0.00000000E+00  0.00000000E+00  0.00000000E+00
