Na3  La5  I18                           
   1.1499999999999999     
     3.9228398980727524   -6.7945576977951605    0.0000000000000000
     3.9228396247333435    6.7945578556077422    0.0000000000000000
     0.0000000000000000    0.0000000000000000   12.3518096908513328
  Na              La              I             
     3     5    18
Direct
  0.3333333333333357  0.6666666666666643  0.5000000000000000
  0.0000000000000000  0.0000000000000000  0.2685045017090872
  0.0000000000000000  0.0000000000000000  0.7314954982909129
  0.3333333333333357  0.6666666666666643  0.8324387133079785
  0.3333333333333357  0.6666666666666643  0.1675612866920287
  0.6666666666666643  0.3333333333333357  0.3385337449305192
  0.6666666666666643  0.3333333333333357  0.0000000000000000
  0.6666666666666643  0.3333333333333357  0.6614662550694809
  0.3021049798649231  0.9092320543529496  0.0000000000000000
  0.3006988519623157  0.9144088503641875  0.3262772776208775
  0.3006988519623157  0.9144088503641875  0.6737227223791225
  0.0907679456470504  0.3928729255119665  0.0000000000000000
  0.0855911496358125  0.3862900015981282  0.3262772776208775
  0.0855911496358125  0.3862900015981282  0.6737227223791225
  0.3912143405922171  0.3005423518405321  0.8360043919812717
  0.3912143405922171  0.3005423518405321  0.1639956080187283
  0.3920119493240033  0.2919734055035779  0.5000000000000000
  0.6071270744880336  0.6978950201350769  0.0000000000000000
  0.6137099984018718  0.6993011480376843  0.3262772776208775
  0.6137099984018718  0.6993011480376843  0.6737227223791225
  0.9093280112483150  0.6087856594077901  0.8360043919812717
  0.9093280112483150  0.6087856594077901  0.1639956080187283
  0.8999614561795675  0.6079880506759968  0.5000000000000000
  0.6994576481594679  0.0906719887516850  0.8360043919812717
  0.6994576481594679  0.0906719887516850  0.1639956080187283
  0.7080265944964222  0.1000385438204325  0.5000000000000000

  0.00000000E+00  0.00000000E+00  0.00000000E+00
  0.00000000E+00  0.00000000E+00  0.00000000E+00
  0.00000000E+00  0.00000000E+00  0.00000000E+00
  0.00000000E+00  0.00000000E+00  0.00000000E+00
  0.00000000E+00  0.00000000E+00  0.00000000E+00
  0.00000000E+00  0.00000000E+00  0.00000000E+00
  0.00000000E+00  0.00000000E+00  0.00000000E+00
  0.00000000E+00  0.00000000E+00  0.00000000E+00
  0.00000000E+00  0.00000000E+00  0.00000000E+00
  0.00000000E+00  0.00000000E+00  0.00000000E+00
  0.00000000E+00  0.00000000E+00  0.00000000E+00
  0.00000000E+00  0.00000000E+00  0.00000000E+00
  0.00000000E+00  0.00000000E+00  0.00000000E+00
  0.00000000E+00  0.00000000E+00  0.00000000E+00
  0.00000000E+00  0.00000000E+00  0.00000000E+00
  0.00000000E+00  0.00000000E+00  0.00000000E+00
  0.00000000E+00  0.00000000E+00  0.00000000E+00
  0.00000000E+00  0.00000000E+00  0.00000000E+00
  0.00000000E+00  0.00000000E+00  0.00000000E+00
  0.00000000E+00  0.00000000E+00  0.00000000E+00
  0.00000000E+00  0.00000000E+00  0.00000000E+00
  0.00000000E+00  0.00000000E+00  0.00000000E+00
  0.00000000E+00  0.00000000E+00  0.00000000E+00
  0.00000000E+00  0.00000000E+00  0.00000000E+00
  0.00000000E+00  0.00000000E+00  0.00000000E+00
  0.00000000E+00  0.00000000E+00  0.00000000E+00
