Na12  La4  I24                          
   1.7000000000000002     
     4.7456647118372519    0.0000000000000000    0.0000000000000000
     0.0000000000000000    8.0490357842918900    0.0000000000000000
     0.0000000000000000    0.0000000000000000    9.1031638977757847
  Na              La              I             
    12     4    24
Direct
  0.0001472968451637  0.0997805540039565  0.8759689169235330
  0.9953322284392954  0.4262870563582126  0.1122261342201369
  0.0001472968451637  0.4002194319960424  0.3759689169235330
  0.4953322384392962  0.5737130006417885  0.8877738287798635
  0.0016001623288986  0.0738030364355993  0.1406432867723240
  0.5016001623288915  0.9261969495643996  0.8593566762276765
  0.5001473448451677  0.9002194599960447  0.1240310830764741
  0.5001473448451677  0.5997805400039553  0.6240310830764670
  0.4953322384392962  0.9262869993582115  0.3877738537798621
  0.5016001623288915  0.5738030504356004  0.3593567262276736
  0.9953322284392954  0.0737129546417918  0.6122261212201394
  0.0016001623288986  0.4261969495643996  0.6406433237723235
  0.0004550524266662  0.7493235097456079  0.8743604466026724
  0.5004550734266644  0.2506764612543932  0.1256395773973296
  0.5004550734266644  0.2493235667456091  0.6256396023973281
  0.0004550524266662  0.7506764902543921  0.3743604466026724
  0.3247693597523025  0.7509773957158998  0.2579538062402946
  0.3468191616642073  0.0750605443908086  0.2384409518015715
  0.6697232226509371  0.7436104379943487  0.4867111987572059
  0.6608645331541609  0.4078460522356977  0.0057598650864321
  0.1608645091541590  0.5921539477643023  0.9942401079135692
  0.8190419383774312  0.5931499572892918  0.7548985730501485
  0.6697232226509371  0.7563895620056513  0.9867111497572054
  0.6608645331541609  0.0921539407643053  0.5057598430864303
  0.1697231986509422  0.2563895340056490  0.5132888012427941
  0.3190419633774297  0.4068500997107094  0.2451014759498520
  0.1740789833609497  0.9208551300718639  0.9890242364895485
  0.1608645091541590  0.9078460522356977  0.4942401079135692
  0.1740789833609497  0.5791448699281361  0.4890242864895455
  0.3468191616642073  0.4249394556091914  0.7384409768015772
  0.3247693597523025  0.7490226042841002  0.7579537822402997
  0.8468191376642054  0.9249394556091914  0.7615590231984228
  0.6740789833609497  0.4208551590718628  0.5109757135104545
  0.3190419633774297  0.0931499152892954  0.7451014269498515
  0.8468191376642054  0.5750605443908086  0.2615590481984285
  0.1697231986509422  0.2436104659943510  0.0132887992427939
  0.8247693117522985  0.2490225752841013  0.7420462177597003
  0.6740789833609497  0.0791448549281384  0.0109757475104502
  0.8247693117522985  0.2509774107158975  0.2420461937597054
  0.8190419383774312  0.9068500427107082  0.2548985240501480

  0.00000000E+00  0.00000000E+00  0.00000000E+00
  0.00000000E+00  0.00000000E+00  0.00000000E+00
  0.00000000E+00  0.00000000E+00  0.00000000E+00
  0.00000000E+00  0.00000000E+00  0.00000000E+00
  0.00000000E+00  0.00000000E+00  0.00000000E+00
  0.00000000E+00  0.00000000E+00  0.00000000E+00
  0.00000000E+00  0.00000000E+00  0.00000000E+00
  0.00000000E+00  0.00000000E+00  0.00000000E+00
  0.00000000E+00  0.00000000E+00  0.00000000E+00
  0.00000000E+00  0.00000000E+00  0.00000000E+00
  0.00000000E+00  0.00000000E+00  0.00000000E+00
  0.00000000E+00  0.00000000E+00  0.00000000E+00
  0.00000000E+00  0.00000000E+00  0.00000000E+00
  0.00000000E+00  0.00000000E+00  0.00000000E+00
  0.00000000E+00  0.00000000E+00  0.00000000E+00
  0.00000000E+00  0.00000000E+00  0.00000000E+00
  0.00000000E+00  0.00000000E+00  0.00000000E+00
  0.00000000E+00  0.00000000E+00  0.00000000E+00
  0.00000000E+00  0.00000000E+00  0.00000000E+00
  0.00000000E+00  0.00000000E+00  0.00000000E+00
  0.00000000E+00  0.00000000E+00  0.00000000E+00
  0.00000000E+00  0.00000000E+00  0.00000000E+00
  0.00000000E+00  0.00000000E+00  0.00000000E+00
  0.00000000E+00  0.00000000E+00  0.00000000E+00
  0.00000000E+00  0.00000000E+00  0.00000000E+00
  0.00000000E+00  0.00000000E+00  0.00000000E+00
  0.00000000E+00  0.00000000E+00  0.00000000E+00
  0.00000000E+00  0.00000000E+00  0.00000000E+00
  0.00000000E+00  0.00000000E+00  0.00000000E+00
  0.00000000E+00  0.00000000E+00  0.00000000E+00
  0.00000000E+00  0.00000000E+00  0.00000000E+00
  0.00000000E+00  0.00000000E+00  0.00000000E+00
  0.00000000E+00  0.00000000E+00  0.00000000E+00
  0.00000000E+00  0.00000000E+00  0.00000000E+00
  0.00000000E+00  0.00000000E+00  0.00000000E+00
  0.00000000E+00  0.00000000E+00  0.00000000E+00
  0.00000000E+00  0.00000000E+00  0.00000000E+00
  0.00000000E+00  0.00000000E+00  0.00000000E+00
  0.00000000E+00  0.00000000E+00  0.00000000E+00
  0.00000000E+00  0.00000000E+00  0.00000000E+00
