Na12  La4  I24                          
   1.2500000000000000     
    12.7216557663661796   -0.0820922731805826    0.0071372163116682
    -0.0712466342353716   11.0043478058499495    0.0820957112867346
     0.0030308179653273    0.0448387904353500    6.1698633296125998
  Na              La              I             
    12     4    24
Direct
  0.6337295605822462  0.4111411319693730  0.9990398316305686
  0.3662703654177548  0.5888588680306270  0.0009602013694305
  0.1348052680901830  0.0897726193290396  0.5003334274356916
  0.8651947689098165  0.9102274236709604  0.4996665725643084
  0.3727802243207776  0.9152721894013354  0.0072557858574740
  0.6272197016792234  0.0847278535986646  0.9927442471425252
  0.6251463337369572  0.4176603119980697  0.4965534820582960
  0.3748536662630428  0.5823396880019303  0.5034465179417040
  0.8810486347540802  0.5803788333418680  0.0058086181295991
  0.1189513372459174  0.4196211666581320  0.9941914078703959
  0.1206107069412496  0.0816638294821956  0.0016848308022190
  0.8793892650587480  0.9183361865178057  0.9983151951977760
  0.3755024730307213  0.2475787246913370  0.0067865348357827
  0.6244975639692854  0.7524212543086648  0.9932134941642161
  0.1235597861914641  0.7440242706633242  0.5038366125794056
  0.8764402138085359  0.2559757083366776  0.4961633874205944
  0.7911756397944103  0.4148231748002189  0.7312440346764504
  0.2088243782055841  0.5851768251997811  0.2687559653235496
  0.7060255077407049  0.5819654805626584  0.2257637279575562
  0.2939745112593002  0.4180345194373416  0.7742363320424417
  0.2019939323480386  0.9175653678871640  0.2657573951655934
  0.7980060856519557  0.0824346221128351  0.7342426048344066
  0.2897340509317274  0.0857407956238916  0.7721179623801504
  0.7102659680682777  0.9142591943761076  0.2278820976198475
  0.4601165464337669  0.7437772269027931  0.2323141998249341
  0.5398834905662326  0.2562227520972087  0.7676857811750679
  0.0409037038424103  0.2454297343943708  0.7337224120627184
  0.9590962961575897  0.7545702446056310  0.2662776269372813
  0.4578595451256149  0.4173073430472769  0.2457576401525543
  0.5421404918743846  0.5826926139527231  0.7542423798474402
  0.0425094528211716  0.5887544967026273  0.7555799564906494
  0.9574905471788284  0.4112454602973727  0.2444200235093561
  0.5419884305548806  0.9135531807059536  0.7675974300018424
  0.4580116064451190  0.0864468572940424  0.2324025899981521
  0.9570197205032045  0.0842840359199855  0.2628029958230584
  0.0429802794967955  0.9157160020800106  0.7371969841769470
  0.2064955622543181  0.2511819502176920  0.2295209776985416
  0.7935044187456768  0.7488180287823099  0.7704790423014529
  0.2912136464442554  0.7490301181945540  0.7331544745456284
  0.7087863165557380  0.2509698608054478  0.2668455054543770

  0.00000000E+00  0.00000000E+00  0.00000000E+00
  0.00000000E+00  0.00000000E+00  0.00000000E+00
  0.00000000E+00  0.00000000E+00  0.00000000E+00
  0.00000000E+00  0.00000000E+00  0.00000000E+00
  0.00000000E+00  0.00000000E+00  0.00000000E+00
  0.00000000E+00  0.00000000E+00  0.00000000E+00
  0.00000000E+00  0.00000000E+00  0.00000000E+00
  0.00000000E+00  0.00000000E+00  0.00000000E+00
  0.00000000E+00  0.00000000E+00  0.00000000E+00
  0.00000000E+00  0.00000000E+00  0.00000000E+00
  0.00000000E+00  0.00000000E+00  0.00000000E+00
  0.00000000E+00  0.00000000E+00  0.00000000E+00
  0.00000000E+00  0.00000000E+00  0.00000000E+00
  0.00000000E+00  0.00000000E+00  0.00000000E+00
  0.00000000E+00  0.00000000E+00  0.00000000E+00
  0.00000000E+00  0.00000000E+00  0.00000000E+00
  0.00000000E+00  0.00000000E+00  0.00000000E+00
  0.00000000E+00  0.00000000E+00  0.00000000E+00
  0.00000000E+00  0.00000000E+00  0.00000000E+00
  0.00000000E+00  0.00000000E+00  0.00000000E+00
  0.00000000E+00  0.00000000E+00  0.00000000E+00
  0.00000000E+00  0.00000000E+00  0.00000000E+00
  0.00000000E+00  0.00000000E+00  0.00000000E+00
  0.00000000E+00  0.00000000E+00  0.00000000E+00
  0.00000000E+00  0.00000000E+00  0.00000000E+00
  0.00000000E+00  0.00000000E+00  0.00000000E+00
  0.00000000E+00  0.00000000E+00  0.00000000E+00
  0.00000000E+00  0.00000000E+00  0.00000000E+00
  0.00000000E+00  0.00000000E+00  0.00000000E+00
  0.00000000E+00  0.00000000E+00  0.00000000E+00
  0.00000000E+00  0.00000000E+00  0.00000000E+00
  0.00000000E+00  0.00000000E+00  0.00000000E+00
  0.00000000E+00  0.00000000E+00  0.00000000E+00
  0.00000000E+00  0.00000000E+00  0.00000000E+00
  0.00000000E+00  0.00000000E+00  0.00000000E+00
  0.00000000E+00  0.00000000E+00  0.00000000E+00
  0.00000000E+00  0.00000000E+00  0.00000000E+00
  0.00000000E+00  0.00000000E+00  0.00000000E+00
  0.00000000E+00  0.00000000E+00  0.00000000E+00
  0.00000000E+00  0.00000000E+00  0.00000000E+00
