Na6  La2  I12                           
   1.1499999999999999     
     0.0000000000000000    7.0451094006723807    0.0067077401635814
    12.0752684164560051    0.0000000000000000    0.0000000000000000
     0.0000000000000000   -2.3678718696817893   -6.6333407388870596
  Na              La              I             
     6     2    12
Direct
  0.5000000000000000  0.8313620865799720  0.0000000000000000
  0.5000000000000000  0.1667104822640226  0.0000000000000000
  0.5000000000000000  0.6654247780610376  0.5000000000000000
  0.0000000000000000  0.3313620865799720  0.0000000000000000
  0.0000000000000000  0.6667104822640226  0.0000000000000000
  0.0000000000000000  0.1654247780610376  0.5000000000000000
  0.5000000000000000  0.4968622639844682  0.0000000000000000
  0.0000000000000000  0.9968622639844682  0.0000000000000000
  0.7535318121244501  0.8330907053674537  0.7650953448272588
  0.7657162356949669  0.1608558065687973  0.7560167594399871
  0.2342837643050331  0.1608558065687973  0.2439832405600129
  0.2464681878755499  0.8330907053674537  0.2349046551727412
  0.2454383158328852  0.0033751826190027  0.7642280976993732
  0.7545616841671148  0.0033751826190027  0.2357719023006268
  0.2535318121244501  0.3330907053674537  0.7650953448272588
  0.2657162356949669  0.6608558065687973  0.7560167594399871
  0.7342837643050331  0.6608558065687973  0.2439832405600129
  0.7464681878755499  0.3330907053674537  0.2349046551727412
  0.7454383158328852  0.5033751826190027  0.7642280976993732
  0.2545616841671148  0.5033751826190027  0.2357719023006268

  0.00000000E+00  0.00000000E+00  0.00000000E+00
  0.00000000E+00  0.00000000E+00  0.00000000E+00
  0.00000000E+00  0.00000000E+00  0.00000000E+00
  0.00000000E+00  0.00000000E+00  0.00000000E+00
  0.00000000E+00  0.00000000E+00  0.00000000E+00
  0.00000000E+00  0.00000000E+00  0.00000000E+00
  0.00000000E+00  0.00000000E+00  0.00000000E+00
  0.00000000E+00  0.00000000E+00  0.00000000E+00
  0.00000000E+00  0.00000000E+00  0.00000000E+00
  0.00000000E+00  0.00000000E+00  0.00000000E+00
  0.00000000E+00  0.00000000E+00  0.00000000E+00
  0.00000000E+00  0.00000000E+00  0.00000000E+00
  0.00000000E+00  0.00000000E+00  0.00000000E+00
  0.00000000E+00  0.00000000E+00  0.00000000E+00
  0.00000000E+00  0.00000000E+00  0.00000000E+00
  0.00000000E+00  0.00000000E+00  0.00000000E+00
  0.00000000E+00  0.00000000E+00  0.00000000E+00
  0.00000000E+00  0.00000000E+00  0.00000000E+00
  0.00000000E+00  0.00000000E+00  0.00000000E+00
  0.00000000E+00  0.00000000E+00  0.00000000E+00
