Na6  La2  I12                           
   1.4999999999999998     
     5.3143720688773621    0.0000000000000000    0.0260633668640298
     0.0000000000000000    5.6570178569723115    0.0000000000000000
    -0.1343655280782584    0.0000000000000000    8.0528535496331539
  I               La              Na            
    12     2     6
Direct
  0.1021610723298139  0.4192390710224458  0.0068595379442300
  0.4201145662315540  0.8046462814547297  0.1671926007660929
  0.5775210691511816  0.3074527407581158  0.1800951127041870
  0.9214179140028875  0.6675565617031083  0.3193408937043287
  0.0792565601492186  0.1709324770515721  0.3331580668247085
  0.3974095139242166  0.5565588917116671  0.4929669170230966
  0.6025904860757834  0.0565588917116671  0.5070330829769034
  0.9207434398507814  0.6709324770515721  0.6668419331752915
  0.0785820859971125  0.1675565617031083  0.6806591062956713
  0.4224789308488184  0.8074527407581158  0.8199048872958130
  0.5798854337684460  0.3046462814547297  0.8328073992339071
  0.8978389276701861  0.9192390710224458  0.9931404620557700
  0.2496570159475127  0.4876475217737237  0.2499311116100458
  0.7503429840524873  0.9876475217737237  0.7500688883899542
  0.7188870987802360  0.5754307804087873  0.0141549646551979
  0.7498123023958101  0.9877144431222078  0.2500391435423168
  0.7803359337471178  0.4008196054086497  0.4860482925719651
  0.2196640662528822  0.9008196054086497  0.5139517074280349
  0.2501876976041899  0.4877144431222078  0.7499608564576832
  0.2811129012197640  0.0754307804087873  0.9858450353448021

  0.00000000E+00  0.00000000E+00  0.00000000E+00
  0.00000000E+00  0.00000000E+00  0.00000000E+00
  0.00000000E+00  0.00000000E+00  0.00000000E+00
  0.00000000E+00  0.00000000E+00  0.00000000E+00
  0.00000000E+00  0.00000000E+00  0.00000000E+00
  0.00000000E+00  0.00000000E+00  0.00000000E+00
  0.00000000E+00  0.00000000E+00  0.00000000E+00
  0.00000000E+00  0.00000000E+00  0.00000000E+00
  0.00000000E+00  0.00000000E+00  0.00000000E+00
  0.00000000E+00  0.00000000E+00  0.00000000E+00
  0.00000000E+00  0.00000000E+00  0.00000000E+00
  0.00000000E+00  0.00000000E+00  0.00000000E+00
  0.00000000E+00  0.00000000E+00  0.00000000E+00
  0.00000000E+00  0.00000000E+00  0.00000000E+00
  0.00000000E+00  0.00000000E+00  0.00000000E+00
  0.00000000E+00  0.00000000E+00  0.00000000E+00
  0.00000000E+00  0.00000000E+00  0.00000000E+00
  0.00000000E+00  0.00000000E+00  0.00000000E+00
  0.00000000E+00  0.00000000E+00  0.00000000E+00
  0.00000000E+00  0.00000000E+00  0.00000000E+00
