Na3  La3  I12                           
   1.4500000000000000     
     6.0879119041610732    0.0029811462410488   -0.0037774537056435
     3.0425701910975160    6.2579473375150254    0.1386634819019969
     3.0344595104397438    2.3878189237992813    5.7897314236015154
  Na              La              I             
     3     3    12
Direct
  0.6552733355100173  0.9648187646642654  0.6977217752733296
  0.6742842195404393  0.4764392518347478  0.1966804292663369
  0.3259157254096436  0.9106588496212282  0.4244888081406870
  0.9990303979842068  0.0030923851810130  0.9973704830436816
  0.0015526686544902  0.5051985380312090  0.4940606595352790
  0.3367131112068691  0.4175397585253364  0.9121347440777541
  0.0466262338781931  0.7796955703210173  0.8086725599497697
  0.0524342333886523  0.3110458406860417  0.2744729159372881
  0.3662334081038097  0.5153220104428158  0.5297214617725885
  0.3660910309289207  0.0359891785442699  0.0121594450360902
  0.5888636159652805  0.6679359054573553  0.6953309591197083
  0.5891089228709347  0.2031564445701690  0.1629259580428695
  0.7585383556073921  0.2324826885214932  0.7253396486845887
  0.7524297632507810  0.7435151286361616  0.2386641781787162
  0.2661357841712615  0.1269699321924023  0.6239291489301735
  0.2815678667599002  0.6345195368049588  0.1255685332044720
  0.9637584847966920  0.8920024930327131  0.3870390606741694
  0.9754428419725230  0.3906197429327847  0.8827172511324477

  0.00000000E+00  0.00000000E+00  0.00000000E+00
  0.00000000E+00  0.00000000E+00  0.00000000E+00
  0.00000000E+00  0.00000000E+00  0.00000000E+00
  0.00000000E+00  0.00000000E+00  0.00000000E+00
  0.00000000E+00  0.00000000E+00  0.00000000E+00
  0.00000000E+00  0.00000000E+00  0.00000000E+00
  0.00000000E+00  0.00000000E+00  0.00000000E+00
  0.00000000E+00  0.00000000E+00  0.00000000E+00
  0.00000000E+00  0.00000000E+00  0.00000000E+00
  0.00000000E+00  0.00000000E+00  0.00000000E+00
  0.00000000E+00  0.00000000E+00  0.00000000E+00
  0.00000000E+00  0.00000000E+00  0.00000000E+00
  0.00000000E+00  0.00000000E+00  0.00000000E+00
  0.00000000E+00  0.00000000E+00  0.00000000E+00
  0.00000000E+00  0.00000000E+00  0.00000000E+00
  0.00000000E+00  0.00000000E+00  0.00000000E+00
  0.00000000E+00  0.00000000E+00  0.00000000E+00
  0.00000000E+00  0.00000000E+00  0.00000000E+00
