Na6  La6  I24                           
   1.4500000000000000     
     4.0903446951819014   -7.0846850940364794   -0.0000000000000000
     4.0903449216575867    7.0846849632806874    0.0000000000000000
     0.0000000000000000   -0.0000000000000000    8.9130650866462044
  Na              La              I             
     6     6    24
Direct
  0.7155693949450779  0.9981660419289824  0.0495918190298568
  0.0018339580710176  0.7174033530161097  0.3829251523631925
  0.2825966469838903  0.2844306050549221  0.7162584856965211
  0.6169937573865667  0.0475399123843232  0.7398077503124156
  0.9524600876156768  0.5694538450022506  0.0731410836457442
  0.4305461549977494  0.3830062426134333  0.4064744169790799
  0.3366166654918956  0.0404925556760034  0.0258256190989883
  0.9595074443239966  0.2961241098158922  0.3591589524323169
  0.7038758901841078  0.6633833345081115  0.6924922857656526
  0.5312689611037555  0.8295507998490024  0.3742066992022828
  0.1704492001509976  0.7017181612547461  0.7075400325356114
  0.2982818387452539  0.4687310388962445  0.0408733658689471
  0.4531306632506400  0.7069466514580967  0.6301593560682761
  0.2538159882074495  0.5468693367493600  0.2968260227349404
  0.2930533485419033  0.7461840117925505  0.9634926894016118
  0.1457999926385156  0.4370117440576138  0.8101784094993150
  0.2912117514191053  0.8542000073614844  0.4768450761659722
  0.5629882559423862  0.7087882485808947  0.1435117428326436
  0.0823870431222034  0.8554727430459792  0.1575054341679447
  0.7730856999237758  0.9176129568777966  0.8241721008346090
  0.1445272569540208  0.2269143000762242  0.4908387675012804
  0.5570368725413815  0.3655473846045254  0.6160187279505749
  0.8085105120631297  0.4429631274586185  0.2826853946172392
  0.6344526153954746  0.1914894879368703  0.9493520612839106
  0.4926434901761709  0.0160873937569050  0.2206334877202494
  0.9839126062430950  0.4765560964192659  0.5539668210535780
  0.5234439035807341  0.5073565098238291  0.8873001543869137
  0.8381152107906260  0.0063177596323527  0.2726177719073988
  0.9936822403676544  0.8317974511582733  0.6059511052407274
  0.1682025488417267  0.1618847892093669  0.9392844385740631
  0.6783747117601564  0.6727623319328799  0.4334357379798277
  0.3272376680671201  0.0056123798272694  0.7667690713131634
  0.9943876201727306  0.3216252882398507  0.1001024046464920
  0.7007233608796781  0.0996424570486028  0.5057395370628868
  0.9003575429513972  0.6010809038310612  0.8390728703962154
  0.3989190961689388  0.2992766391203219  0.1724062037295511

  0.00000000E+00  0.00000000E+00  0.00000000E+00
  0.00000000E+00  0.00000000E+00  0.00000000E+00
  0.00000000E+00  0.00000000E+00  0.00000000E+00
  0.00000000E+00  0.00000000E+00  0.00000000E+00
  0.00000000E+00  0.00000000E+00  0.00000000E+00
  0.00000000E+00  0.00000000E+00  0.00000000E+00
  0.00000000E+00  0.00000000E+00  0.00000000E+00
  0.00000000E+00  0.00000000E+00  0.00000000E+00
  0.00000000E+00  0.00000000E+00  0.00000000E+00
  0.00000000E+00  0.00000000E+00  0.00000000E+00
  0.00000000E+00  0.00000000E+00  0.00000000E+00
  0.00000000E+00  0.00000000E+00  0.00000000E+00
  0.00000000E+00  0.00000000E+00  0.00000000E+00
  0.00000000E+00  0.00000000E+00  0.00000000E+00
  0.00000000E+00  0.00000000E+00  0.00000000E+00
  0.00000000E+00  0.00000000E+00  0.00000000E+00
  0.00000000E+00  0.00000000E+00  0.00000000E+00
  0.00000000E+00  0.00000000E+00  0.00000000E+00
  0.00000000E+00  0.00000000E+00  0.00000000E+00
  0.00000000E+00  0.00000000E+00  0.00000000E+00
  0.00000000E+00  0.00000000E+00  0.00000000E+00
  0.00000000E+00  0.00000000E+00  0.00000000E+00
  0.00000000E+00  0.00000000E+00  0.00000000E+00
  0.00000000E+00  0.00000000E+00  0.00000000E+00
  0.00000000E+00  0.00000000E+00  0.00000000E+00
  0.00000000E+00  0.00000000E+00  0.00000000E+00
  0.00000000E+00  0.00000000E+00  0.00000000E+00
  0.00000000E+00  0.00000000E+00  0.00000000E+00
  0.00000000E+00  0.00000000E+00  0.00000000E+00
  0.00000000E+00  0.00000000E+00  0.00000000E+00
  0.00000000E+00  0.00000000E+00  0.00000000E+00
  0.00000000E+00  0.00000000E+00  0.00000000E+00
  0.00000000E+00  0.00000000E+00  0.00000000E+00
  0.00000000E+00  0.00000000E+00  0.00000000E+00
  0.00000000E+00  0.00000000E+00  0.00000000E+00
  0.00000000E+00  0.00000000E+00  0.00000000E+00
