Na4  La4  I16                           
   1.2500000000000000     
     5.9312318567513644    0.0000000000000000    0.0000000000000004
     0.0000000000000010    6.3655558449670604    0.0000000000000004
     0.0000000000000000   -0.0000000000000000   15.0599072686709068
  Na              La              I             
     4     4    16
Direct
  0.0000000000000000  0.2500000000000000  0.6877005438164190
  0.5000000000000000  0.7500000000000000  0.8122994561835810
  0.0000000000000000  0.7500000000000000  0.3122994561835810
  0.5000000000000000  0.2500000000000000  0.1877005438164190
  0.0000000000000000  0.2500000000000000  0.9272368153117725
  0.5000000000000000  0.2500000000000000  0.4272368153117725
  0.0000000000000000  0.7500000000000000  0.0727631846882275
  0.5000000000000000  0.7500000000000000  0.5727631846882275
  0.2540945081950738  0.5909742794610793  0.6877299246938264
  0.7568232761457807  0.4202348025123470  0.0527732712149174
  0.2568232761457807  0.5797651974876459  0.4472267287850826
  0.7431767238542193  0.9202348025123541  0.4472267287850826
  0.7540945081950738  0.4090257205389207  0.8122700753061736
  0.2459054918049262  0.5909742794610793  0.1877299246938264
  0.7459054918049262  0.9090257205389207  0.6877299246938264
  0.2459054918049262  0.0909742794610793  0.8122700753061736
  0.2540945081950738  0.0909742794610793  0.3122700753061736
  0.7459054918049262  0.4090257205389207  0.3122700753061736
  0.2431767238542193  0.5797651974876459  0.9472267287850826
  0.7540945081950738  0.9090257205389207  0.1877299246938264
  0.7568232761457807  0.9202348025123541  0.9472267287850826
  0.2568232761457807  0.0797651974876530  0.5527732712149174
  0.7431767238542193  0.4202348025123470  0.5527732712149174
  0.2431767238542193  0.0797651974876530  0.0527732712149174

  0.00000000E+00  0.00000000E+00  0.00000000E+00
  0.00000000E+00  0.00000000E+00  0.00000000E+00
  0.00000000E+00  0.00000000E+00  0.00000000E+00
  0.00000000E+00  0.00000000E+00  0.00000000E+00
  0.00000000E+00  0.00000000E+00  0.00000000E+00
  0.00000000E+00  0.00000000E+00  0.00000000E+00
  0.00000000E+00  0.00000000E+00  0.00000000E+00
  0.00000000E+00  0.00000000E+00  0.00000000E+00
  0.00000000E+00  0.00000000E+00  0.00000000E+00
  0.00000000E+00  0.00000000E+00  0.00000000E+00
  0.00000000E+00  0.00000000E+00  0.00000000E+00
  0.00000000E+00  0.00000000E+00  0.00000000E+00
  0.00000000E+00  0.00000000E+00  0.00000000E+00
  0.00000000E+00  0.00000000E+00  0.00000000E+00
  0.00000000E+00  0.00000000E+00  0.00000000E+00
  0.00000000E+00  0.00000000E+00  0.00000000E+00
  0.00000000E+00  0.00000000E+00  0.00000000E+00
  0.00000000E+00  0.00000000E+00  0.00000000E+00
  0.00000000E+00  0.00000000E+00  0.00000000E+00
  0.00000000E+00  0.00000000E+00  0.00000000E+00
  0.00000000E+00  0.00000000E+00  0.00000000E+00
  0.00000000E+00  0.00000000E+00  0.00000000E+00
  0.00000000E+00  0.00000000E+00  0.00000000E+00
  0.00000000E+00  0.00000000E+00  0.00000000E+00
