Na2  La2  I8                            
   1.4500000000000000     
     5.4135688008031453    0.0000000000000000    0.0000000000000000
     0.0000000000000000    5.4135688008031453   -0.0000000000000000
     0.0000000000000000   -0.0000000000000000    5.5232474181297349
  Na              La              I             
     2     2     8
Direct
  0.0000000000000000  0.5000000000000000  0.5000000000000000
  0.5000000000000000  0.0000000000000000  0.5000000000000000
  0.0000000000000000  0.0000000000000000  0.0000000000000000
  0.5000000000000000  0.5000000000000000  0.0000000000000000
  0.2500000000000000  0.2500000000000000  0.2390810732531961
  0.7500000000000000  0.7500000000000000  0.7609189267468039
  0.7500000000000000  0.7500000000000000  0.2390810732531961
  0.2500000000000000  0.2500000000000000  0.7609189267468039
  0.7500000000000000  0.2500000000000000  0.7609189267468039
  0.2500000000000000  0.7500000000000000  0.2390810732531961
  0.2500000000000000  0.7500000000000000  0.7609189267468039
  0.7500000000000000  0.2500000000000000  0.2390810732531961

  0.00000000E+00  0.00000000E+00  0.00000000E+00
  0.00000000E+00  0.00000000E+00  0.00000000E+00
  0.00000000E+00  0.00000000E+00  0.00000000E+00
  0.00000000E+00  0.00000000E+00  0.00000000E+00
  0.00000000E+00  0.00000000E+00  0.00000000E+00
  0.00000000E+00  0.00000000E+00  0.00000000E+00
  0.00000000E+00  0.00000000E+00  0.00000000E+00
  0.00000000E+00  0.00000000E+00  0.00000000E+00
  0.00000000E+00  0.00000000E+00  0.00000000E+00
  0.00000000E+00  0.00000000E+00  0.00000000E+00
  0.00000000E+00  0.00000000E+00  0.00000000E+00
  0.00000000E+00  0.00000000E+00  0.00000000E+00
