Na18  La18  I72                         
   1.2500000000000000     
    11.5080373966142560  -19.9325054663385615   -0.0000000000000000
    11.5080373966142560   19.9325054663385615    0.0000000000000000
    -0.0000000000000000    0.0000000000000000    6.4583258424235170
  Na              La              I             
    18    18    72
Direct
  0.4629044377983007  0.3019254582286450  0.1908724860544169
  0.3647412084380264  0.4943123129030056  0.5242058193877455
  0.1723543537636658  0.2037622288683707  0.8575391527210812
  0.3647412084380264  0.8704288955350350  0.0242058193877455
  0.4629044377983007  0.1609789795696699  0.6908724860544169
  0.1723543537636658  0.9685921248953093  0.3575391527210812
  0.1295711044649650  0.6352587915619736  0.5242058193877455
  0.0314078751046907  0.8276456462363342  0.8575391527210812
  0.8390210204303301  0.5370955622016993  0.1908724860544169
  0.0314078751046907  0.2037622288683707  0.3575391527210812
  0.1295711044649650  0.4943123129030056  0.0242058193877455
  0.8390210204303301  0.3019254582286450  0.6908724860544169
  0.7962377711316293  0.9685921248953093  0.8575391527210812
  0.6980745417713550  0.1609789795696699  0.1908724860544169
  0.5056876870970015  0.8704288955350350  0.5242058193877455
  0.6980745417713550  0.5370955622016993  0.6908724860544169
  0.7962377711316293  0.8276456462363342  0.3575391527210812
  0.5056876870970015  0.6352587915619736  0.0242058193877455
  0.1990910660468046  0.0509543199082572  0.8843146111523836
  0.2823790134250643  0.8148034128051975  0.5509812778190550
  0.5185299205281311  0.1342422672865240  0.2176479444857193
  0.2823790134250643  0.4675756006198597  0.0509812778190550
  0.1990910660468046  0.1481367461385332  0.3843146111523836
  0.5185299205281311  0.3842876532415929  0.7176479444857193
  0.8657577327134760  0.3842876532415929  0.2176479444857193
  0.9490456800917357  0.1481367461385332  0.8843146111523836
  0.1851965871948025  0.4675756006198597  0.5509812778190550
  0.9490456800917357  0.8009089339531954  0.3843146111523836
  0.8657577327134760  0.4814700794718689  0.7176479444857193
  0.1851965871948025  0.7176209865749215  0.0509812778190550
  0.5324243993801403  0.7176209865749215  0.5509812778190550
  0.6157123467584071  0.4814700794718689  0.2176479444857193
  0.8518632538614668  0.8009089339531954  0.8843146111523836
  0.6157123467584071  0.1342422672865240  0.7176479444857193
  0.5324243993801403  0.8148034128051975  0.0509812778190550
  0.8518632538614668  0.0509543199082572  0.3843146111523836
  0.1201970729322568  0.0340967523051177  0.1911212841770933
  0.2992365810282180  0.7527669872938176  0.8577879508437576
  0.5805663460395181  0.2131362604010718  0.5244546175104290
  0.2992365810282180  0.5464695937344004  0.3577879508437576
  0.1201970729322568  0.0861003206271533  0.6911212841770933
  0.5805663460395181  0.3674300856384463  0.0244546175104290
  0.2621933524175404  0.0121050902074344  0.0909510273257226
  0.3212282431259013  0.9167549288767773  0.7576176939923940
  0.4165784044565584  0.0711399809157953  0.4242843606590583
  0.3212282431259013  0.4044733142491310  0.2576176939923940
  0.2621933524175404  0.2500882622101059  0.5909510273257226
  0.4165784044565584  0.3454384235407630  0.9242843606590583
  0.2659183836534922  0.0949580054306338  0.5473409802760756
  0.2383753279027019  0.8376270448895085  0.2140076469427470
  0.4957062884438201  0.0674149496798435  0.8806743136094042
  0.2383753279027019  0.4007482830131721  0.7140076469427399
  0.2659183836534922  0.1709603782228442  0.0473409802760827
  0.4957062884438201  0.4282913387639695  0.3806743136094042
  0.1363852015657514  0.9363989608104504  0.7213322810142841
  0.3969343725228853  0.8666529074219795  0.3879989476809556
  0.4666804259113562  0.1969481317675843  0.0546656143476199
  0.3969343725228853  0.5302814651009129  0.8879989476809556
  0.1363852015657514  0.1999862407553081  0.2213322810142841
  0.4666804259113562  0.2697322941437790  0.5546656143476199
  0.7868637395989353  0.3674300856384463  0.5244546175104290
  0.9659032476948823  0.0861003206271533  0.1911212841770933
  0.2472330127061824  0.5464695937344004  0.8577879508437576
  0.9659032476948823  0.8798029270677361  0.6911212841770933
  0.7868637395989353  0.4194336539604819  0.0244546175104290
  0.2472330127061824  0.7007634189717820  0.3577879508437576
  0.9288600190841976  0.3454384235407630  0.4242843606590583
  0.9878949097925656  0.2500882622101059  0.0909510273257226
  0.0832450711232227  0.4044733142491310  0.7576176939923940
  0.9878949097925656  0.7378066475824596  0.5909510273257226
  0.9288600190841976  0.5834215955434416  0.9242843606590583
  0.0832450711232227  0.6787717568740987  0.2576176939923940
  0.9325850503201565  0.4282913387639695  0.8806743136094042
  0.9050419945693662  0.1709603782228442  0.5473409802760756
  0.1623729551104915  0.4007482830131721  0.2140076469427470
  0.9050419945693662  0.7340816163465078  0.0473409802760827
  0.9325850503201565  0.5042937115561799  0.3806743136094042
  0.1623729551104915  0.7616246720972981  0.7140076469427399
  0.8030518682324157  0.2697322941437790  0.0546656143476199
  0.0636010391895567  0.1999862407553081  0.7213322810142841
  0.1333470925780205  0.5302814651009129  0.3879989476809556
  0.0636010391895567  0.8636147984342486  0.2213322810142841
  0.8030518682324157  0.5333195740886438  0.5546656143476199
  0.1333470925780205  0.6030656274771147  0.8879989476809556
  0.4535304062655925  0.7007634189717820  0.8577879508437576
  0.6325699143615537  0.4194336539604819  0.5244546175104290
  0.9138996793728467  0.8798029270677361  0.1911212841770933
  0.6325699143615537  0.2131362604010718  0.0244546175104290
  0.4535304062655925  0.7527669872938176  0.3577879508437576
  0.9138996793728467  0.0340967523051177  0.6911212841770933
  0.5955266857508690  0.6787717568740987  0.7576176939923940
  0.6545615764592370  0.5834215955434416  0.4242843606590583
  0.7499117377898941  0.7378066475824596  0.0909510273257226
  0.6545615764592370  0.0711399809157953  0.9242843606590583
  0.5955266857508690  0.9167549288767773  0.2576176939923940
  0.7499117377898941  0.0121050902074344  0.5909510273257226
  0.5992517169868279  0.7616246720972981  0.2140076469427470
  0.5717086612360305  0.5042937115561799  0.8806743136094042
  0.8290396217771558  0.7340816163465078  0.5473409802760756
  0.5717086612360305  0.0674149496798435  0.3806743136094042
  0.5992517169868279  0.8376270448895085  0.7140076469427399
  0.8290396217771558  0.0949580054306338  0.0473409802760827
  0.4697185348990871  0.6030656274771147  0.3879989476809556
  0.7302677058562210  0.5333195740886438  0.0546656143476199
  0.8000137592446919  0.8636147984342486  0.7213322810142841
  0.7302677058562210  0.1969481317675843  0.5546656143476199
  0.4697185348990871  0.8666529074219795  0.8879989476809556
  0.8000137592446919  0.9363989608104504  0.2213322810142841

  0.00000000E+00  0.00000000E+00  0.00000000E+00
  0.00000000E+00  0.00000000E+00  0.00000000E+00
  0.00000000E+00  0.00000000E+00  0.00000000E+00
  0.00000000E+00  0.00000000E+00  0.00000000E+00
  0.00000000E+00  0.00000000E+00  0.00000000E+00
  0.00000000E+00  0.00000000E+00  0.00000000E+00
  0.00000000E+00  0.00000000E+00  0.00000000E+00
  0.00000000E+00  0.00000000E+00  0.00000000E+00
  0.00000000E+00  0.00000000E+00  0.00000000E+00
  0.00000000E+00  0.00000000E+00  0.00000000E+00
  0.00000000E+00  0.00000000E+00  0.00000000E+00
  0.00000000E+00  0.00000000E+00  0.00000000E+00
  0.00000000E+00  0.00000000E+00  0.00000000E+00
  0.00000000E+00  0.00000000E+00  0.00000000E+00
  0.00000000E+00  0.00000000E+00  0.00000000E+00
  0.00000000E+00  0.00000000E+00  0.00000000E+00
  0.00000000E+00  0.00000000E+00  0.00000000E+00
  0.00000000E+00  0.00000000E+00  0.00000000E+00
  0.00000000E+00  0.00000000E+00  0.00000000E+00
  0.00000000E+00  0.00000000E+00  0.00000000E+00
  0.00000000E+00  0.00000000E+00  0.00000000E+00
  0.00000000E+00  0.00000000E+00  0.00000000E+00
  0.00000000E+00  0.00000000E+00  0.00000000E+00
  0.00000000E+00  0.00000000E+00  0.00000000E+00
  0.00000000E+00  0.00000000E+00  0.00000000E+00
  0.00000000E+00  0.00000000E+00  0.00000000E+00
  0.00000000E+00  0.00000000E+00  0.00000000E+00
  0.00000000E+00  0.00000000E+00  0.00000000E+00
  0.00000000E+00  0.00000000E+00  0.00000000E+00
  0.00000000E+00  0.00000000E+00  0.00000000E+00
  0.00000000E+00  0.00000000E+00  0.00000000E+00
  0.00000000E+00  0.00000000E+00  0.00000000E+00
  0.00000000E+00  0.00000000E+00  0.00000000E+00
  0.00000000E+00  0.00000000E+00  0.00000000E+00
  0.00000000E+00  0.00000000E+00  0.00000000E+00
  0.00000000E+00  0.00000000E+00  0.00000000E+00
  0.00000000E+00  0.00000000E+00  0.00000000E+00
  0.00000000E+00  0.00000000E+00  0.00000000E+00
  0.00000000E+00  0.00000000E+00  0.00000000E+00
  0.00000000E+00  0.00000000E+00  0.00000000E+00
  0.00000000E+00  0.00000000E+00  0.00000000E+00
  0.00000000E+00  0.00000000E+00  0.00000000E+00
  0.00000000E+00  0.00000000E+00  0.00000000E+00
  0.00000000E+00  0.00000000E+00  0.00000000E+00
  0.00000000E+00  0.00000000E+00  0.00000000E+00
  0.00000000E+00  0.00000000E+00  0.00000000E+00
  0.00000000E+00  0.00000000E+00  0.00000000E+00
  0.00000000E+00  0.00000000E+00  0.00000000E+00
  0.00000000E+00  0.00000000E+00  0.00000000E+00
  0.00000000E+00  0.00000000E+00  0.00000000E+00
  0.00000000E+00  0.00000000E+00  0.00000000E+00
  0.00000000E+00  0.00000000E+00  0.00000000E+00
  0.00000000E+00  0.00000000E+00  0.00000000E+00
  0.00000000E+00  0.00000000E+00  0.00000000E+00
  0.00000000E+00  0.00000000E+00  0.00000000E+00
  0.00000000E+00  0.00000000E+00  0.00000000E+00
  0.00000000E+00  0.00000000E+00  0.00000000E+00
  0.00000000E+00  0.00000000E+00  0.00000000E+00
  0.00000000E+00  0.00000000E+00  0.00000000E+00
  0.00000000E+00  0.00000000E+00  0.00000000E+00
  0.00000000E+00  0.00000000E+00  0.00000000E+00
  0.00000000E+00  0.00000000E+00  0.00000000E+00
  0.00000000E+00  0.00000000E+00  0.00000000E+00
  0.00000000E+00  0.00000000E+00  0.00000000E+00
  0.00000000E+00  0.00000000E+00  0.00000000E+00
  0.00000000E+00  0.00000000E+00  0.00000000E+00
  0.00000000E+00  0.00000000E+00  0.00000000E+00
  0.00000000E+00  0.00000000E+00  0.00000000E+00
  0.00000000E+00  0.00000000E+00  0.00000000E+00
  0.00000000E+00  0.00000000E+00  0.00000000E+00
  0.00000000E+00  0.00000000E+00  0.00000000E+00
  0.00000000E+00  0.00000000E+00  0.00000000E+00
  0.00000000E+00  0.00000000E+00  0.00000000E+00
  0.00000000E+00  0.00000000E+00  0.00000000E+00
  0.00000000E+00  0.00000000E+00  0.00000000E+00
  0.00000000E+00  0.00000000E+00  0.00000000E+00
  0.00000000E+00  0.00000000E+00  0.00000000E+00
  0.00000000E+00  0.00000000E+00  0.00000000E+00
  0.00000000E+00  0.00000000E+00  0.00000000E+00
  0.00000000E+00  0.00000000E+00  0.00000000E+00
  0.00000000E+00  0.00000000E+00  0.00000000E+00
  0.00000000E+00  0.00000000E+00  0.00000000E+00
  0.00000000E+00  0.00000000E+00  0.00000000E+00
  0.00000000E+00  0.00000000E+00  0.00000000E+00
  0.00000000E+00  0.00000000E+00  0.00000000E+00
  0.00000000E+00  0.00000000E+00  0.00000000E+00
  0.00000000E+00  0.00000000E+00  0.00000000E+00
  0.00000000E+00  0.00000000E+00  0.00000000E+00
  0.00000000E+00  0.00000000E+00  0.00000000E+00
  0.00000000E+00  0.00000000E+00  0.00000000E+00
  0.00000000E+00  0.00000000E+00  0.00000000E+00
  0.00000000E+00  0.00000000E+00  0.00000000E+00
  0.00000000E+00  0.00000000E+00  0.00000000E+00
  0.00000000E+00  0.00000000E+00  0.00000000E+00
  0.00000000E+00  0.00000000E+00  0.00000000E+00
  0.00000000E+00  0.00000000E+00  0.00000000E+00
  0.00000000E+00  0.00000000E+00  0.00000000E+00
  0.00000000E+00  0.00000000E+00  0.00000000E+00
  0.00000000E+00  0.00000000E+00  0.00000000E+00
  0.00000000E+00  0.00000000E+00  0.00000000E+00
  0.00000000E+00  0.00000000E+00  0.00000000E+00
  0.00000000E+00  0.00000000E+00  0.00000000E+00
  0.00000000E+00  0.00000000E+00  0.00000000E+00
  0.00000000E+00  0.00000000E+00  0.00000000E+00
  0.00000000E+00  0.00000000E+00  0.00000000E+00
  0.00000000E+00  0.00000000E+00  0.00000000E+00
  0.00000000E+00  0.00000000E+00  0.00000000E+00
  0.00000000E+00  0.00000000E+00  0.00000000E+00
