Na1  La7  I12                           
   1.2000000000000000     
     9.5989216789653771    0.6155149199667570    0.1875181009167464
     0.3463537024008811    7.1101987180627715    0.0333188989419522
     0.1610850191455954    0.1599140108866777    7.5532879306527967
  Na              La              I             
     1     7    12
Direct
  0.5000000000000000  0.5000000000000000  0.0000000000000000
  0.5000000000000000  0.0000000000000000  0.5000000000000000
  0.0000000000000000  0.0000000000000000  0.5000000000000000
  0.0000000000000000  0.5000000000000000  0.0000000000000000
  0.3158635696603298  0.0249189713536921  0.8425130129878724
  0.7619356336359857  0.0596329507563311  0.7800284548494858
  0.6841364303396702  0.9750810206463072  0.1574870130121298
  0.2380643963640168  0.9403670492436689  0.2199715451505142
  0.5711362128158797  0.8126763791134266  0.8184467168813327
  0.4288637871841203  0.1873236508865688  0.1815532531186719
  0.9245269199457624  0.7163697129758262  0.7148196037460650
  0.7562705216217296  0.3362366189136310  0.0287867788504386
  0.0435675355494993  0.1949590881692416  0.7891007316624723
  0.5175204479641806  0.7085262572025286  0.2724286368368070
  0.9564324494504959  0.8050408968307536  0.2108992533375229
  0.4824795520358194  0.2914737277974666  0.7275713481631882
  0.0754730720542369  0.2836302570241784  0.2851803662539325
  0.7396281105715232  0.1930774659250289  0.4380494743470038
  0.2603719194284793  0.8069225490749687  0.5619505546530021
  0.2437294483782750  0.6637633810863690  0.9712132431495419

  0.00000000E+00  0.00000000E+00  0.00000000E+00
  0.00000000E+00  0.00000000E+00  0.00000000E+00
  0.00000000E+00  0.00000000E+00  0.00000000E+00
  0.00000000E+00  0.00000000E+00  0.00000000E+00
  0.00000000E+00  0.00000000E+00  0.00000000E+00
  0.00000000E+00  0.00000000E+00  0.00000000E+00
  0.00000000E+00  0.00000000E+00  0.00000000E+00
  0.00000000E+00  0.00000000E+00  0.00000000E+00
  0.00000000E+00  0.00000000E+00  0.00000000E+00
  0.00000000E+00  0.00000000E+00  0.00000000E+00
  0.00000000E+00  0.00000000E+00  0.00000000E+00
  0.00000000E+00  0.00000000E+00  0.00000000E+00
  0.00000000E+00  0.00000000E+00  0.00000000E+00
  0.00000000E+00  0.00000000E+00  0.00000000E+00
  0.00000000E+00  0.00000000E+00  0.00000000E+00
  0.00000000E+00  0.00000000E+00  0.00000000E+00
  0.00000000E+00  0.00000000E+00  0.00000000E+00
  0.00000000E+00  0.00000000E+00  0.00000000E+00
  0.00000000E+00  0.00000000E+00  0.00000000E+00
  0.00000000E+00  0.00000000E+00  0.00000000E+00
