Na6  La6  I24                           
   1.4500000000000000     
     0.0000000000000000    6.0912830733724341   -0.0010873051514449
     6.8431563565174036    0.0000000000000000    0.0000000000000000
     0.0000000000000000   -6.0784944768994196  -10.4847085908200182
  Na              La              I             
     6     6    24
Direct
  0.6742982865162399  0.6385690428188927  0.1631236079401119
  0.6548092200604301  0.1323745512582216  0.1689862758997396
  0.6548092200604301  0.8676254487417784  0.6689862758997325
  0.3269626118331861  0.2483483678340783  0.3327504681241940
  0.6742982865162399  0.3614309571811073  0.6631236079401118
  0.3269626118331861  0.7516516321659218  0.8327504681241941
  0.9996698960536882  0.0008195210810757  0.5005793359570920
  0.3367497543096388  0.7496168343260918  0.3351284658224560
  0.9996698960536882  0.9991804789189244  0.0005793359570920
  0.0006319508290405  0.5016056881921042  0.9994369949758291
  0.0006319508290405  0.4983943118078959  0.4994369949758291
  0.3367497543096388  0.2503831656739082  0.8351284658224561
  0.7527131285811314  0.7475958897005349  0.0089156388747650
  0.7586790109570534  0.2507839460957849  0.0211723971450755
  0.9753484500921185  0.7497489800306976  0.3634046823400440
  0.9637654545582212  0.2477958896384162  0.3606703448596503
  0.5886682753111231  0.9839627224726079  0.3184005865267194
  0.5886670788594580  0.5173891214395976  0.3164062787289761
  0.7586790109570534  0.7492160539042151  0.5211723971450755
  0.7527131285811314  0.2524041102994651  0.5089156388747721
  0.2813001765647322  0.7511662998795429  0.1198372325036019
  0.2661319983657487  0.2493684009469342  0.1244364970319296
  0.9637654545582212  0.7522041103615837  0.8606703448596502
  0.9753484500921185  0.2502510199693025  0.8634046823400439
  0.3671338653102472  0.9899965467717755  0.4767578782815038
  0.3658030080991247  0.5083490539231892  0.4766277294252452
  0.0468746598226844  0.9824373726613870  0.2061506793819576
  0.0517911938761694  0.5150161444289516  0.2072139161811266
  0.5886670788594580  0.4826108785604025  0.8164062787289761
  0.5886682753111231  0.0160372775273922  0.8184005865267193
  0.2661319983657487  0.7506315990530658  0.6244364970319296
  0.2813001765647322  0.2488337001204572  0.6198372325036018
  0.3671338653102472  0.0100034532282245  0.9767578782815040
  0.3658030080991247  0.4916509460768108  0.9766277294252452
  0.0468746598226844  0.0175626273386130  0.7061506793819576
  0.0517911938761694  0.4849838555710484  0.7072139161811265

  0.00000000E+00  0.00000000E+00  0.00000000E+00
  0.00000000E+00  0.00000000E+00  0.00000000E+00
  0.00000000E+00  0.00000000E+00  0.00000000E+00
  0.00000000E+00  0.00000000E+00  0.00000000E+00
  0.00000000E+00  0.00000000E+00  0.00000000E+00
  0.00000000E+00  0.00000000E+00  0.00000000E+00
  0.00000000E+00  0.00000000E+00  0.00000000E+00
  0.00000000E+00  0.00000000E+00  0.00000000E+00
  0.00000000E+00  0.00000000E+00  0.00000000E+00
  0.00000000E+00  0.00000000E+00  0.00000000E+00
  0.00000000E+00  0.00000000E+00  0.00000000E+00
  0.00000000E+00  0.00000000E+00  0.00000000E+00
  0.00000000E+00  0.00000000E+00  0.00000000E+00
  0.00000000E+00  0.00000000E+00  0.00000000E+00
  0.00000000E+00  0.00000000E+00  0.00000000E+00
  0.00000000E+00  0.00000000E+00  0.00000000E+00
  0.00000000E+00  0.00000000E+00  0.00000000E+00
  0.00000000E+00  0.00000000E+00  0.00000000E+00
  0.00000000E+00  0.00000000E+00  0.00000000E+00
  0.00000000E+00  0.00000000E+00  0.00000000E+00
  0.00000000E+00  0.00000000E+00  0.00000000E+00
  0.00000000E+00  0.00000000E+00  0.00000000E+00
  0.00000000E+00  0.00000000E+00  0.00000000E+00
  0.00000000E+00  0.00000000E+00  0.00000000E+00
  0.00000000E+00  0.00000000E+00  0.00000000E+00
  0.00000000E+00  0.00000000E+00  0.00000000E+00
  0.00000000E+00  0.00000000E+00  0.00000000E+00
  0.00000000E+00  0.00000000E+00  0.00000000E+00
  0.00000000E+00  0.00000000E+00  0.00000000E+00
  0.00000000E+00  0.00000000E+00  0.00000000E+00
  0.00000000E+00  0.00000000E+00  0.00000000E+00
  0.00000000E+00  0.00000000E+00  0.00000000E+00
  0.00000000E+00  0.00000000E+00  0.00000000E+00
  0.00000000E+00  0.00000000E+00  0.00000000E+00
  0.00000000E+00  0.00000000E+00  0.00000000E+00
  0.00000000E+00  0.00000000E+00  0.00000000E+00
