Na3  La3  I12                           
   1.4000000000000001     
     3.1915016770035649   -5.5278430446047047    0.0000000000000000
     3.1915016662590090    5.5278430508080802    0.0000000000000000
     0.0000000000000000    0.0000000000000000    6.9169143974126746
  Na              La              I             
     3     3    12
Direct
  0.0000000000000000  0.0000000000000000  0.2620953271267439
  0.0000000000000000  0.0000000000000000  0.7379046728732561
  0.3333333333333357  0.6666666666666643  0.5000000000000000
  0.6666666666666643  0.3333333333333357  0.7471761775224124
  0.6666666666666643  0.3333333333333357  0.2528238224775876
  0.3333333333333357  0.6666666666666643  0.0000000000000000
  0.9128190993903047  0.3026791589437252  0.0000000000000000
  0.8994814569357601  0.2860028013636935  0.5000000000000000
  0.6973208410562748  0.6101399404465795  0.0000000000000000
  0.7139971986363065  0.6134786555720666  0.5000000000000000
  0.0832942988754724  0.6933113509261517  0.7570649125751174
  0.0832942988754724  0.6933113509261517  0.2429350874248826
  0.3898600595534205  0.0871809006097024  0.0000000000000000
  0.3865213444279334  0.1005185430642399  0.5000000000000000
  0.3066886490738483  0.3899829479493349  0.7570649125751174
  0.3066886490738483  0.3899829479493349  0.2429350874248826
  0.6100170520506651  0.9167057011245276  0.7570649125751174
  0.6100170520506651  0.9167057011245276  0.2429350874248826

  0.00000000E+00  0.00000000E+00  0.00000000E+00
  0.00000000E+00  0.00000000E+00  0.00000000E+00
  0.00000000E+00  0.00000000E+00  0.00000000E+00
  0.00000000E+00  0.00000000E+00  0.00000000E+00
  0.00000000E+00  0.00000000E+00  0.00000000E+00
  0.00000000E+00  0.00000000E+00  0.00000000E+00
  0.00000000E+00  0.00000000E+00  0.00000000E+00
  0.00000000E+00  0.00000000E+00  0.00000000E+00
  0.00000000E+00  0.00000000E+00  0.00000000E+00
  0.00000000E+00  0.00000000E+00  0.00000000E+00
  0.00000000E+00  0.00000000E+00  0.00000000E+00
  0.00000000E+00  0.00000000E+00  0.00000000E+00
  0.00000000E+00  0.00000000E+00  0.00000000E+00
  0.00000000E+00  0.00000000E+00  0.00000000E+00
  0.00000000E+00  0.00000000E+00  0.00000000E+00
  0.00000000E+00  0.00000000E+00  0.00000000E+00
  0.00000000E+00  0.00000000E+00  0.00000000E+00
  0.00000000E+00  0.00000000E+00  0.00000000E+00
