Na8  La8  I24                           
   1.3499999999999999     
     6.1299694695444318   -0.0000000000000002    0.0000000000000003
     0.0000000000000013    7.9764974962635113    0.0000000000000004
     0.0000000000000001   -0.0000000000000001   12.6193538731153563
  Na              La              I             
     8     8    24
Direct
  0.4334605415789596  0.0069991571600099  0.6271264989599032
  0.9334605415789596  0.9930008428399901  0.8728735010400968
  0.5665394584210404  0.5069991571600099  0.3728735010400968
  0.0665394584210404  0.4930008428399901  0.1271264989599032
  0.5665394584210404  0.9930008428399901  0.3728735010400968
  0.0665394584210404  0.0069991571600099  0.1271264989599032
  0.4334605415789596  0.4930008428399901  0.6271264989599032
  0.9334605415789596  0.5069991571600099  0.8728735010400968
  0.5475534012099885  0.7500000000000000  0.1626762312785104
  0.0475534012099885  0.2500000000000000  0.3373237687214896
  0.4524465987900115  0.2500000000000000  0.8373237687214896
  0.9524465987900115  0.7500000000000000  0.6626762312785104
  0.4582057367617054  0.7500000000000000  0.9455397360195690
  0.9582057367616983  0.2500000000000000  0.5544602639804310
  0.5417942632383017  0.2500000000000000  0.0544602639804310
  0.0417942632382946  0.7500000000000000  0.4455397360195690
  0.1164165795104140  0.7500000000000000  0.8414538384905370
  0.6164165795104140  0.2500000000000000  0.6585461615094630
  0.8835834204895860  0.2500000000000000  0.1585461615094630
  0.3835834204895860  0.7500000000000000  0.3414538384905370
  0.2995717596858043  0.7500000000000000  0.5865531451351274
  0.7995717596858043  0.2500000000000000  0.9134468548648726
  0.7004282403141957  0.2500000000000000  0.4134468548648726
  0.2004282403141957  0.7500000000000000  0.0865531451351274
  0.9100284616092154  0.5609112483789218  0.2963715080114113
  0.4100284616092154  0.4390887516210782  0.2036284919885887
  0.0899715383907846  0.0609112483789218  0.7036284919885887
  0.5899715383907846  0.9390887516210782  0.7963715080114113
  0.0899715383907846  0.4390887516210782  0.7036284919885887
  0.5899715383907846  0.5609112483789218  0.7963715080114113
  0.9100284616092154  0.9390887516210782  0.2963715080114113
  0.4100284616092154  0.0609112483789218  0.2036284919885887
  0.7753808047704140  0.9340455425872136  0.5364650599385001
  0.2753808047704140  0.0659544574127864  0.9635349400614999
  0.2246191952295860  0.4340455425872136  0.4635349400614999
  0.7246191952295860  0.5659544574127864  0.0364650599385001
  0.2246191952295860  0.0659544574127864  0.4635349400614999
  0.7246191952295860  0.9340455425872136  0.0364650599385001
  0.7753808047704140  0.5659544574127864  0.5364650599385001
  0.2753808047704140  0.4340455425872136  0.9635349400614999

  0.00000000E+00  0.00000000E+00  0.00000000E+00
  0.00000000E+00  0.00000000E+00  0.00000000E+00
  0.00000000E+00  0.00000000E+00  0.00000000E+00
  0.00000000E+00  0.00000000E+00  0.00000000E+00
  0.00000000E+00  0.00000000E+00  0.00000000E+00
  0.00000000E+00  0.00000000E+00  0.00000000E+00
  0.00000000E+00  0.00000000E+00  0.00000000E+00
  0.00000000E+00  0.00000000E+00  0.00000000E+00
  0.00000000E+00  0.00000000E+00  0.00000000E+00
  0.00000000E+00  0.00000000E+00  0.00000000E+00
  0.00000000E+00  0.00000000E+00  0.00000000E+00
  0.00000000E+00  0.00000000E+00  0.00000000E+00
  0.00000000E+00  0.00000000E+00  0.00000000E+00
  0.00000000E+00  0.00000000E+00  0.00000000E+00
  0.00000000E+00  0.00000000E+00  0.00000000E+00
  0.00000000E+00  0.00000000E+00  0.00000000E+00
  0.00000000E+00  0.00000000E+00  0.00000000E+00
  0.00000000E+00  0.00000000E+00  0.00000000E+00
  0.00000000E+00  0.00000000E+00  0.00000000E+00
  0.00000000E+00  0.00000000E+00  0.00000000E+00
  0.00000000E+00  0.00000000E+00  0.00000000E+00
  0.00000000E+00  0.00000000E+00  0.00000000E+00
  0.00000000E+00  0.00000000E+00  0.00000000E+00
  0.00000000E+00  0.00000000E+00  0.00000000E+00
  0.00000000E+00  0.00000000E+00  0.00000000E+00
  0.00000000E+00  0.00000000E+00  0.00000000E+00
  0.00000000E+00  0.00000000E+00  0.00000000E+00
  0.00000000E+00  0.00000000E+00  0.00000000E+00
  0.00000000E+00  0.00000000E+00  0.00000000E+00
  0.00000000E+00  0.00000000E+00  0.00000000E+00
  0.00000000E+00  0.00000000E+00  0.00000000E+00
  0.00000000E+00  0.00000000E+00  0.00000000E+00
  0.00000000E+00  0.00000000E+00  0.00000000E+00
  0.00000000E+00  0.00000000E+00  0.00000000E+00
  0.00000000E+00  0.00000000E+00  0.00000000E+00
  0.00000000E+00  0.00000000E+00  0.00000000E+00
  0.00000000E+00  0.00000000E+00  0.00000000E+00
  0.00000000E+00  0.00000000E+00  0.00000000E+00
  0.00000000E+00  0.00000000E+00  0.00000000E+00
  0.00000000E+00  0.00000000E+00  0.00000000E+00
