Na1  La1  I4                            
   1.4999999999999998     
     3.7001741001910040   -0.0000000000000001    0.0000000000000002
     0.0000000000000005    3.7001741001910040    0.0000000000000002
     0.0000000000000000    0.0000000000000000    5.3353134847270178
  Na              La              I             
     1     1     4
Direct
  0.0000000000000000  0.0000000000000000  0.0000000000000000
  0.5000000000000000  0.5000000000000000  0.5000000000000000
  0.5000000000000000  0.0000000000000000  0.7394480350363892
  0.0000000000000000  0.5000000000000000  0.2605519649636108
  0.5000000000000000  0.0000000000000000  0.2605519649636108
  0.0000000000000000  0.5000000000000000  0.7394480350363892

  0.00000000E+00  0.00000000E+00  0.00000000E+00
  0.00000000E+00  0.00000000E+00  0.00000000E+00
  0.00000000E+00  0.00000000E+00  0.00000000E+00
  0.00000000E+00  0.00000000E+00  0.00000000E+00
  0.00000000E+00  0.00000000E+00  0.00000000E+00
  0.00000000E+00  0.00000000E+00  0.00000000E+00
