Na2  La2  I8                            
   1.2000000000000000     
     6.2873977610579388    0.0000000000000000   -0.0460478467238365
     0.0000000000000000    7.6160872777476776    0.0000000000000000
    -0.2817434144027207    0.0000000000000000    6.6932222115793012
  I               Na              La            
     8     2     2
Direct
  0.2659518778725740  0.8918891256008763  0.0685962421662367
  0.2406383329452026  0.3800662065691540  0.0866978873988700
  0.7593616670547974  0.3800662065691540  0.4133021126011300
  0.7340481221274260  0.8918891256008763  0.4314037578337633
  0.2659518778725740  0.1081108743991237  0.5685962421662367
  0.2406383329452026  0.6199337934308460  0.5866978873988700
  0.7593616670547974  0.6199337934308460  0.9133021126011300
  0.7340481221274260  0.1081108743991237  0.9314037578337633
  0.0000000000000000  0.6338165361315191  0.2500000000000000
  0.0000000000000000  0.3661834638684809  0.7500000000000000
  0.5000000000000000  0.1523611789866450  0.2500000000000000
  0.5000000000000000  0.8476388210133550  0.7500000000000000

  0.00000000E+00  0.00000000E+00  0.00000000E+00
  0.00000000E+00  0.00000000E+00  0.00000000E+00
  0.00000000E+00  0.00000000E+00  0.00000000E+00
  0.00000000E+00  0.00000000E+00  0.00000000E+00
  0.00000000E+00  0.00000000E+00  0.00000000E+00
  0.00000000E+00  0.00000000E+00  0.00000000E+00
  0.00000000E+00  0.00000000E+00  0.00000000E+00
  0.00000000E+00  0.00000000E+00  0.00000000E+00
  0.00000000E+00  0.00000000E+00  0.00000000E+00
  0.00000000E+00  0.00000000E+00  0.00000000E+00
  0.00000000E+00  0.00000000E+00  0.00000000E+00
  0.00000000E+00  0.00000000E+00  0.00000000E+00
