Na10  La6  I28                          
   1.7000000000000002     
     6.5558989199668929   -0.0000000000000001    0.0000000000000003
     0.0000000000000010    6.5558989199668929    0.0000000000000003
     0.0000000000000000    0.0000000000000000    9.2817951345119099
  Na              La              I             
    10     6    28
Direct
  0.0000000000000000  0.0000000000000000  0.5000000000000000
  0.5000000000000000  0.5000000000000000  0.0000000000000000
  0.2815294243564779  0.7815294243564708  0.2500000000000000
  0.2184705756435221  0.2815294243564779  0.2500000000000000
  0.7815294243564708  0.7184705756435292  0.2500000000000000
  0.7184705756435292  0.2184705756435221  0.2500000000000000
  0.2815294243564779  0.7815294243564708  0.7500000000000000
  0.2184705756435221  0.2815294243564779  0.7500000000000000
  0.7815294243564708  0.7184705756435292  0.7500000000000000
  0.7184705756435292  0.2184705756435221  0.7500000000000000
  0.0000000000000000  0.0000000000000000  0.0000000000000000
  0.5000000000000000  0.5000000000000000  0.5000000000000000
  0.0000000000000000  0.5000000000000000  0.0000000000000000
  0.5000000000000000  0.0000000000000000  0.0000000000000000
  0.5000000000000000  0.0000000000000000  0.5000000000000000
  0.0000000000000000  0.5000000000000000  0.5000000000000000
  0.0416526534032471  0.7032834031232937  0.6401251529714713
  0.9583473465967529  0.2967165968767063  0.6401251529714713
  0.2032834031233008  0.5416526534032471  0.8598748470285287
  0.7032834031232937  0.9583473465967529  0.6401251529714713
  0.2967165968767063  0.0416526534032471  0.6401251529714713
  0.4583473465967529  0.2032834031233008  0.8598748470285287
  0.5416526534032471  0.7967165968767063  0.8598748470285287
  0.7967165968767063  0.4583473465967529  0.8598748470285287
  0.9583473465967529  0.2967165968767063  0.3598748470285287
  0.0416526534032471  0.7032834031232937  0.3598748470285287
  0.7967165968767063  0.4583473465967529  0.1401251529714713
  0.2967165968767063  0.0416526534032471  0.3598748470285287
  0.7032834031232937  0.9583473465967529  0.3598748470285287
  0.5416526534032471  0.7967165968767063  0.1401251529714713
  0.4583473465967529  0.2032834031233008  0.1401251529714713
  0.2032834031233008  0.5416526534032471  0.1401251529714713
  0.0000000000000000  0.0000000000000000  0.1968224133819021
  0.5000000000000000  0.5000000000000000  0.3031775866180979
  0.0000000000000000  0.0000000000000000  0.8031775866180979
  0.5000000000000000  0.5000000000000000  0.6968224133819021
  0.1347311525845925  0.2480225354194090  0.0000000000000000
  0.7519774645805910  0.1347311525845925  0.0000000000000000
  0.2480225354194090  0.8652688474154075  0.0000000000000000
  0.6347311525845925  0.2519774645805910  0.5000000000000000
  0.3652688474154075  0.7480225354194090  0.5000000000000000
  0.8652688474154075  0.7519774645805910  0.0000000000000000
  0.7480225354194090  0.6347311525845925  0.5000000000000000
  0.2519774645805910  0.3652688474154075  0.5000000000000000

  0.00000000E+00  0.00000000E+00  0.00000000E+00
  0.00000000E+00  0.00000000E+00  0.00000000E+00
  0.00000000E+00  0.00000000E+00  0.00000000E+00
  0.00000000E+00  0.00000000E+00  0.00000000E+00
  0.00000000E+00  0.00000000E+00  0.00000000E+00
  0.00000000E+00  0.00000000E+00  0.00000000E+00
  0.00000000E+00  0.00000000E+00  0.00000000E+00
  0.00000000E+00  0.00000000E+00  0.00000000E+00
  0.00000000E+00  0.00000000E+00  0.00000000E+00
  0.00000000E+00  0.00000000E+00  0.00000000E+00
  0.00000000E+00  0.00000000E+00  0.00000000E+00
  0.00000000E+00  0.00000000E+00  0.00000000E+00
  0.00000000E+00  0.00000000E+00  0.00000000E+00
  0.00000000E+00  0.00000000E+00  0.00000000E+00
  0.00000000E+00  0.00000000E+00  0.00000000E+00
  0.00000000E+00  0.00000000E+00  0.00000000E+00
  0.00000000E+00  0.00000000E+00  0.00000000E+00
  0.00000000E+00  0.00000000E+00  0.00000000E+00
  0.00000000E+00  0.00000000E+00  0.00000000E+00
  0.00000000E+00  0.00000000E+00  0.00000000E+00
  0.00000000E+00  0.00000000E+00  0.00000000E+00
  0.00000000E+00  0.00000000E+00  0.00000000E+00
  0.00000000E+00  0.00000000E+00  0.00000000E+00
  0.00000000E+00  0.00000000E+00  0.00000000E+00
  0.00000000E+00  0.00000000E+00  0.00000000E+00
  0.00000000E+00  0.00000000E+00  0.00000000E+00
  0.00000000E+00  0.00000000E+00  0.00000000E+00
  0.00000000E+00  0.00000000E+00  0.00000000E+00
  0.00000000E+00  0.00000000E+00  0.00000000E+00
  0.00000000E+00  0.00000000E+00  0.00000000E+00
  0.00000000E+00  0.00000000E+00  0.00000000E+00
  0.00000000E+00  0.00000000E+00  0.00000000E+00
  0.00000000E+00  0.00000000E+00  0.00000000E+00
  0.00000000E+00  0.00000000E+00  0.00000000E+00
  0.00000000E+00  0.00000000E+00  0.00000000E+00
  0.00000000E+00  0.00000000E+00  0.00000000E+00
  0.00000000E+00  0.00000000E+00  0.00000000E+00
  0.00000000E+00  0.00000000E+00  0.00000000E+00
  0.00000000E+00  0.00000000E+00  0.00000000E+00
  0.00000000E+00  0.00000000E+00  0.00000000E+00
  0.00000000E+00  0.00000000E+00  0.00000000E+00
  0.00000000E+00  0.00000000E+00  0.00000000E+00
  0.00000000E+00  0.00000000E+00  0.00000000E+00
  0.00000000E+00  0.00000000E+00  0.00000000E+00
