Na8  La4  I20                           
   1.4999999999999998     
     4.2131590142772675    0.0000000000000000    0.0000000000000000
     0.0000000000000000   10.3884953578043753   -0.0000000000000000
     0.0000000000000000   -0.0000000000000000   10.5633800332165890
  I               La              Na            
    20     4     8
Direct
  0.5000000000000000  0.1831398951661214  0.0854364235819176
  0.0000000000000000  0.6831398951661143  0.0854364235819176
  0.5000000000000000  0.4555678964469578  0.1207830022808736
  0.0000000000000000  0.9555678964469578  0.1207830022808736
  0.0000000000000000  0.2615860493799786  0.2500000000000000
  0.5000000000000000  0.7615860493799786  0.2500000000000000
  0.5000000000000000  0.4555678964469578  0.3792169977191264
  0.0000000000000000  0.9555678964469578  0.3792169977191264
  0.5000000000000000  0.1831398951661214  0.4145635764180824
  0.0000000000000000  0.6831398951661143  0.4145635764180824
  0.0000000000000000  0.3168601048338786  0.5854364235819176
  0.5000000000000000  0.8168601048338857  0.5854364235819176
  0.0000000000000000  0.0444321035530422  0.6207830022808736
  0.5000000000000000  0.5444321035530422  0.6207830022808736
  0.5000000000000000  0.2384139506200214  0.7500000000000000
  0.0000000000000000  0.7384139506200214  0.7500000000000000
  0.0000000000000000  0.0444321035530422  0.8792169977191264
  0.5000000000000000  0.5444321035530422  0.8792169977191264
  0.0000000000000000  0.3168601048338786  0.9145635764180824
  0.5000000000000000  0.8168601048338857  0.9145635764180824
  0.5000000000000000  0.3063269645326230  0.2500000000000000
  0.0000000000000000  0.8063269645326230  0.2500000000000000
  0.0000000000000000  0.1936730354673770  0.7500000000000000
  0.5000000000000000  0.6936730354673770  0.7500000000000000
  0.0000000000000000  0.1517273981336302  0.0486459843539606
  0.5000000000000000  0.6517273981336302  0.0486459843539606
  0.0000000000000000  0.1517273981336302  0.4513540156460394
  0.5000000000000000  0.6517273981336302  0.4513540156460394
  0.5000000000000000  0.3482726018663698  0.5486459843539606
  0.0000000000000000  0.8482726018663698  0.5486459843539606
  0.5000000000000000  0.3482726018663698  0.9513540156460394
  0.0000000000000000  0.8482726018663698  0.9513540156460394

  0.00000000E+00  0.00000000E+00  0.00000000E+00
  0.00000000E+00  0.00000000E+00  0.00000000E+00
  0.00000000E+00  0.00000000E+00  0.00000000E+00
  0.00000000E+00  0.00000000E+00  0.00000000E+00
  0.00000000E+00  0.00000000E+00  0.00000000E+00
  0.00000000E+00  0.00000000E+00  0.00000000E+00
  0.00000000E+00  0.00000000E+00  0.00000000E+00
  0.00000000E+00  0.00000000E+00  0.00000000E+00
  0.00000000E+00  0.00000000E+00  0.00000000E+00
  0.00000000E+00  0.00000000E+00  0.00000000E+00
  0.00000000E+00  0.00000000E+00  0.00000000E+00
  0.00000000E+00  0.00000000E+00  0.00000000E+00
  0.00000000E+00  0.00000000E+00  0.00000000E+00
  0.00000000E+00  0.00000000E+00  0.00000000E+00
  0.00000000E+00  0.00000000E+00  0.00000000E+00
  0.00000000E+00  0.00000000E+00  0.00000000E+00
  0.00000000E+00  0.00000000E+00  0.00000000E+00
  0.00000000E+00  0.00000000E+00  0.00000000E+00
  0.00000000E+00  0.00000000E+00  0.00000000E+00
  0.00000000E+00  0.00000000E+00  0.00000000E+00
  0.00000000E+00  0.00000000E+00  0.00000000E+00
  0.00000000E+00  0.00000000E+00  0.00000000E+00
  0.00000000E+00  0.00000000E+00  0.00000000E+00
  0.00000000E+00  0.00000000E+00  0.00000000E+00
  0.00000000E+00  0.00000000E+00  0.00000000E+00
  0.00000000E+00  0.00000000E+00  0.00000000E+00
  0.00000000E+00  0.00000000E+00  0.00000000E+00
  0.00000000E+00  0.00000000E+00  0.00000000E+00
  0.00000000E+00  0.00000000E+00  0.00000000E+00
  0.00000000E+00  0.00000000E+00  0.00000000E+00
  0.00000000E+00  0.00000000E+00  0.00000000E+00
  0.00000000E+00  0.00000000E+00  0.00000000E+00
