Na20  La12  I56                         
   1.4000000000000001     
     8.3544319524583273    0.0000000000000001    0.0000000000000005
     0.0000000000000024   14.1485256542989379    0.0000000000000009
    -0.0000000000000000    0.0000000000000001   12.7466249931724143
  Na              La              I             
    20    12    56
Direct
  0.1142740112398641  0.1898829141196572  0.7784863532820623
  0.1595941839503610  0.0618434325210373  0.3582116625538845
  0.1662882017797358  0.5212261956203008  0.6445030850558950
  0.2032714712868611  0.6744215970786058  0.9998423361309747
  0.2989827280857398  0.2404513292086463  0.0537693115797779
  0.2010172719142602  0.7595486707913537  0.5537693115797779
  0.2967285287131389  0.3255784029213942  0.4998423361309747
  0.3337117982202642  0.4787738043796992  0.1445030850558950
  0.3404058160496390  0.9381565674789627  0.8582116625538774
  0.3857259887601359  0.8101170858803428  0.2784863532820623
  0.6142740112398641  0.3101170858803428  0.2215136467179377
  0.6595941839503610  0.4381565674789698  0.6417883374461226
  0.6662882017797358  0.9787738043796992  0.3554969149441050
  0.7989827280857398  0.2595486707913537  0.9462306884202221
  0.7032714712868611  0.8255784029213942  0.0001576638690253
  0.7967285287131389  0.1744215970786058  0.5001576638690253
  0.7010172719142602  0.7404513292086463  0.4462306884202221
  0.8337117982202642  0.0212261956203008  0.8554969149441050
  0.8404058160496390  0.5618434325210373  0.1417883374461155
  0.8857259887601359  0.6898829141196572  0.7215136467179377
  0.9975182179510611  0.2672372025817964  0.2557414177757593
  0.0011371647288598  0.5156658741049682  0.4183749056984638
  0.0011580913207467  0.4959083401142408  0.8909362614073544
  0.4988419086792533  0.5040916598857663  0.3909362614073544
  0.4988628352711260  0.4843341258950247  0.9183749056984709
  0.5024817820489389  0.7327627974182036  0.7557414177757593
  0.4975182179510611  0.2327627974182036  0.7442585822242407
  0.5011371647288669  0.9843341258950318  0.5816250943015291
  0.5011580913207467  0.0040916598857592  0.1090637385926456
  0.9988419086792533  0.9959083401142337  0.6090637385926456
  0.9988628352711331  0.0156658741049753  0.0816250943015362
  0.0024817820489389  0.7672372025817964  0.2442585822242407
  0.0259758520413556  0.6540726745939835  0.8720771385419468
  0.9981494112498410  0.3378073710454785  0.8725421494683090
  0.0265940598926946  0.6302641440786445  0.5362865330599718
  0.0618495640063159  0.4050924105656648  0.5328485899495021
  0.0912905684039984  0.0101818401002163  0.7762178038992573
  0.0829756272338003  0.9194578705174052  0.2126372538189969
  0.1102134156040293  0.1286271448886396  0.1910628565958632
  0.0892594332313479  0.5212275094704495  0.0588336282408477
  0.1674969430902564  0.7890985727269992  0.3841291022276678
  0.1329203562476451  0.2201971647471126  0.4008943791064183
  0.2129883368680154  0.3346495388005692  0.1816084045620840
  0.2282347332250154  0.7157366508295908  0.1685762070129968
  0.2385825733297082  0.5208032359096890  0.3292614217317222
  0.2400547156762372  0.9983231840002418  0.5196566719075975
  0.2599452843237628  0.0016768159997653  0.0196566719076046
  0.2614174266702918  0.4791967640903110  0.8292614217317151
  0.2870116631319846  0.6653504611994308  0.6816084045620840
  0.2717652667749846  0.2842633491704092  0.6685762070129968
  0.3670796437523478  0.7798028352528874  0.9008943791064254
  0.3325030569097436  0.2109014272730008  0.8841291022276678
  0.4107405667686521  0.4787724905295505  0.5588336282408477
  0.3897865843959707  0.8713728551113604  0.6910628565958632
  0.4170243727661997  0.0805421294825948  0.7126372538190040
  0.4087094315959945  0.9898181598997837  0.2762178038992573
  0.4381504359936841  0.5949075894343352  0.0328485899495021
  0.4734059401073054  0.3697358559213626  0.0362865330599718
  0.4740241479586444  0.3459273254060165  0.3720771385419468
  0.5018505887501590  0.6621926289545215  0.3725421494683090
  0.5259758520413556  0.8459273254060165  0.1279228614580532
  0.4981494112498410  0.1621926289545215  0.1274578505316910
  0.5618495640063159  0.0949075894343352  0.4671514100504979
  0.5265940598926946  0.8697358559213555  0.4637134669400282
  0.5912905684040055  0.4898181598997837  0.2237821961007427
  0.6102134156040293  0.3713728551113604  0.8089371434041368
  0.5829756272338003  0.5805421294825948  0.7873627461809960
  0.5892594332313479  0.9787724905295505  0.9411663717591523
  0.6329203562476380  0.2798028352528874  0.5991056208935746
  0.6674969430902635  0.7109014272730008  0.6158708977723322
  0.7129883368680154  0.1653504611994308  0.8183915954379160
  0.7282347332250154  0.7842633491704092  0.8314237929870032
  0.7385825733297082  0.9791967640903110  0.6707385782682849
  0.7400547156762372  0.5016768159997653  0.4803433280923954
  0.7599452843237628  0.4983231840002347  0.9803433280924025
  0.7614174266702918  0.0208032359096890  0.1707385782682778
  0.7870116631319846  0.8346495388005692  0.3183915954379160
  0.7717652667749846  0.2157366508295908  0.3314237929870032
  0.8325030569097365  0.2890985727269992  0.1158708977723322
  0.8670796437523620  0.7201971647471126  0.0991056208935817
  0.9107405667686521  0.0212275094704495  0.4411663717591523
  0.9170243727661997  0.4194578705174052  0.2873627461810031
  0.8897865843959707  0.6286271448886396  0.3089371434041439
  0.9087094315959945  0.5101818401002092  0.7237821961007427
  0.9734059401073054  0.1302641440786445  0.9637134669400282
  0.9381504359936841  0.9050924105656648  0.9671514100504979
  0.0018505887501590  0.8378073710454785  0.6274578505316910
  0.9740241479586444  0.1540726745939835  0.6279228614580532

  0.00000000E+00  0.00000000E+00  0.00000000E+00
  0.00000000E+00  0.00000000E+00  0.00000000E+00
  0.00000000E+00  0.00000000E+00  0.00000000E+00
  0.00000000E+00  0.00000000E+00  0.00000000E+00
  0.00000000E+00  0.00000000E+00  0.00000000E+00
  0.00000000E+00  0.00000000E+00  0.00000000E+00
  0.00000000E+00  0.00000000E+00  0.00000000E+00
  0.00000000E+00  0.00000000E+00  0.00000000E+00
  0.00000000E+00  0.00000000E+00  0.00000000E+00
  0.00000000E+00  0.00000000E+00  0.00000000E+00
  0.00000000E+00  0.00000000E+00  0.00000000E+00
  0.00000000E+00  0.00000000E+00  0.00000000E+00
  0.00000000E+00  0.00000000E+00  0.00000000E+00
  0.00000000E+00  0.00000000E+00  0.00000000E+00
  0.00000000E+00  0.00000000E+00  0.00000000E+00
  0.00000000E+00  0.00000000E+00  0.00000000E+00
  0.00000000E+00  0.00000000E+00  0.00000000E+00
  0.00000000E+00  0.00000000E+00  0.00000000E+00
  0.00000000E+00  0.00000000E+00  0.00000000E+00
  0.00000000E+00  0.00000000E+00  0.00000000E+00
  0.00000000E+00  0.00000000E+00  0.00000000E+00
  0.00000000E+00  0.00000000E+00  0.00000000E+00
  0.00000000E+00  0.00000000E+00  0.00000000E+00
  0.00000000E+00  0.00000000E+00  0.00000000E+00
  0.00000000E+00  0.00000000E+00  0.00000000E+00
  0.00000000E+00  0.00000000E+00  0.00000000E+00
  0.00000000E+00  0.00000000E+00  0.00000000E+00
  0.00000000E+00  0.00000000E+00  0.00000000E+00
  0.00000000E+00  0.00000000E+00  0.00000000E+00
  0.00000000E+00  0.00000000E+00  0.00000000E+00
  0.00000000E+00  0.00000000E+00  0.00000000E+00
  0.00000000E+00  0.00000000E+00  0.00000000E+00
  0.00000000E+00  0.00000000E+00  0.00000000E+00
  0.00000000E+00  0.00000000E+00  0.00000000E+00
  0.00000000E+00  0.00000000E+00  0.00000000E+00
  0.00000000E+00  0.00000000E+00  0.00000000E+00
  0.00000000E+00  0.00000000E+00  0.00000000E+00
  0.00000000E+00  0.00000000E+00  0.00000000E+00
  0.00000000E+00  0.00000000E+00  0.00000000E+00
  0.00000000E+00  0.00000000E+00  0.00000000E+00
  0.00000000E+00  0.00000000E+00  0.00000000E+00
  0.00000000E+00  0.00000000E+00  0.00000000E+00
  0.00000000E+00  0.00000000E+00  0.00000000E+00
  0.00000000E+00  0.00000000E+00  0.00000000E+00
  0.00000000E+00  0.00000000E+00  0.00000000E+00
  0.00000000E+00  0.00000000E+00  0.00000000E+00
  0.00000000E+00  0.00000000E+00  0.00000000E+00
  0.00000000E+00  0.00000000E+00  0.00000000E+00
  0.00000000E+00  0.00000000E+00  0.00000000E+00
  0.00000000E+00  0.00000000E+00  0.00000000E+00
  0.00000000E+00  0.00000000E+00  0.00000000E+00
  0.00000000E+00  0.00000000E+00  0.00000000E+00
  0.00000000E+00  0.00000000E+00  0.00000000E+00
  0.00000000E+00  0.00000000E+00  0.00000000E+00
  0.00000000E+00  0.00000000E+00  0.00000000E+00
  0.00000000E+00  0.00000000E+00  0.00000000E+00
  0.00000000E+00  0.00000000E+00  0.00000000E+00
  0.00000000E+00  0.00000000E+00  0.00000000E+00
  0.00000000E+00  0.00000000E+00  0.00000000E+00
  0.00000000E+00  0.00000000E+00  0.00000000E+00
  0.00000000E+00  0.00000000E+00  0.00000000E+00
  0.00000000E+00  0.00000000E+00  0.00000000E+00
  0.00000000E+00  0.00000000E+00  0.00000000E+00
  0.00000000E+00  0.00000000E+00  0.00000000E+00
  0.00000000E+00  0.00000000E+00  0.00000000E+00
  0.00000000E+00  0.00000000E+00  0.00000000E+00
  0.00000000E+00  0.00000000E+00  0.00000000E+00
  0.00000000E+00  0.00000000E+00  0.00000000E+00
  0.00000000E+00  0.00000000E+00  0.00000000E+00
  0.00000000E+00  0.00000000E+00  0.00000000E+00
  0.00000000E+00  0.00000000E+00  0.00000000E+00
  0.00000000E+00  0.00000000E+00  0.00000000E+00
  0.00000000E+00  0.00000000E+00  0.00000000E+00
  0.00000000E+00  0.00000000E+00  0.00000000E+00
  0.00000000E+00  0.00000000E+00  0.00000000E+00
  0.00000000E+00  0.00000000E+00  0.00000000E+00
  0.00000000E+00  0.00000000E+00  0.00000000E+00
  0.00000000E+00  0.00000000E+00  0.00000000E+00
  0.00000000E+00  0.00000000E+00  0.00000000E+00
  0.00000000E+00  0.00000000E+00  0.00000000E+00
  0.00000000E+00  0.00000000E+00  0.00000000E+00
  0.00000000E+00  0.00000000E+00  0.00000000E+00
  0.00000000E+00  0.00000000E+00  0.00000000E+00
  0.00000000E+00  0.00000000E+00  0.00000000E+00
  0.00000000E+00  0.00000000E+00  0.00000000E+00
  0.00000000E+00  0.00000000E+00  0.00000000E+00
  0.00000000E+00  0.00000000E+00  0.00000000E+00
  0.00000000E+00  0.00000000E+00  0.00000000E+00
