Na6  La2  I12                           
   1.2500000000000000     
     3.2430756649756836   -5.6171718245281070    0.0000000000000000
     3.2430756649756836    5.6171718245281070    0.0000000000000000
    -0.0000000000000000    0.0000000000000000   12.0087972432646630
  Na              La              I             
     6     2    12
Direct
  0.3333333333333357  0.6666666666666643  0.0284650240970095
  0.3333333333333357  0.6666666666666643  0.4715349759029905
  0.0000000000000000  0.0000000000000000  0.7500000000000000
  0.0000000000000000  0.0000000000000000  0.2500000000000000
  0.6666666666666643  0.3333333333333357  0.9715349759029905
  0.6666666666666643  0.3333333333333357  0.5284650240970095
  0.3333333333333357  0.6666666666666643  0.7500000000000000
  0.6666666666666643  0.3333333333333357  0.2500000000000000
  0.3454381736371985  0.0294591528342991  0.1225092606416354
  0.9705408471657009  0.3159790208028994  0.1225092606416354
  0.6840209791971006  0.6545618263628015  0.1225092606416354
  0.6545618263628015  0.6840209791971006  0.6225092606416354
  0.3159790208028994  0.9705408471657009  0.6225092606416354
  0.6545618263628015  0.9705408471657009  0.8774907393583646
  0.3159790208028994  0.3454381736371985  0.8774907393583646
  0.0294591528342991  0.6840209791971006  0.8774907393583646
  0.3454381736371985  0.3159790208028994  0.3774907393583646
  0.9705408471657009  0.6545618263628015  0.3774907393583646
  0.0294591528342991  0.3454381736371985  0.6225092606416354
  0.6840209791971006  0.0294591528342991  0.3774907393583646

  0.00000000E+00  0.00000000E+00  0.00000000E+00
  0.00000000E+00  0.00000000E+00  0.00000000E+00
  0.00000000E+00  0.00000000E+00  0.00000000E+00
  0.00000000E+00  0.00000000E+00  0.00000000E+00
  0.00000000E+00  0.00000000E+00  0.00000000E+00
  0.00000000E+00  0.00000000E+00  0.00000000E+00
  0.00000000E+00  0.00000000E+00  0.00000000E+00
  0.00000000E+00  0.00000000E+00  0.00000000E+00
  0.00000000E+00  0.00000000E+00  0.00000000E+00
  0.00000000E+00  0.00000000E+00  0.00000000E+00
  0.00000000E+00  0.00000000E+00  0.00000000E+00
  0.00000000E+00  0.00000000E+00  0.00000000E+00
  0.00000000E+00  0.00000000E+00  0.00000000E+00
  0.00000000E+00  0.00000000E+00  0.00000000E+00
  0.00000000E+00  0.00000000E+00  0.00000000E+00
  0.00000000E+00  0.00000000E+00  0.00000000E+00
  0.00000000E+00  0.00000000E+00  0.00000000E+00
  0.00000000E+00  0.00000000E+00  0.00000000E+00
  0.00000000E+00  0.00000000E+00  0.00000000E+00
  0.00000000E+00  0.00000000E+00  0.00000000E+00
