Na8  La12  I44                          
   1.4999999999999998     
     0.0000000000000000    6.5793035781207561    0.6149400794427240
     7.9567660226598704    0.0000000000000000    0.0000000000000000
     0.0000000000000000   -1.8404719817821231  -18.6058256278657588
  Na              La              I             
     8    12    44
Direct
  0.5628411086818481  0.7500000000000000  0.1445847040191835
  0.4371588913181521  0.2500000000000000  0.8554152959808233
  0.0123670229668061  0.2500000000000000  0.1331022945910834
  0.9876329770332011  0.7500000000000000  0.8668977054089164
  0.4812216579319249  0.7500000000000000  0.3652303271428258
  0.5187783420680754  0.2500000000000000  0.6347696728571743
  0.9373098753816121  0.2500000000000000  0.3557374578552322
  0.0626901246183879  0.7500000000000000  0.6442625421447679
  0.2574696977911280  0.9927847804285643  0.0281293648209364
  0.7425303022088791  0.4927847804285643  0.9718706351790710
  0.7425303022088791  0.0072152195714356  0.9718706351790710
  0.2574696977911280  0.5072152195714357  0.0281293648209364
  0.2492796235997369  0.4997186046742161  0.2498114467981734
  0.7507203764002630  0.9997186046742157  0.7501885532018268
  0.7507203764002630  0.5002813953257843  0.7501885532018268
  0.2492796235997369  0.0002813953257911  0.2498114467981734
  0.2426346773484846  0.4925263806153950  0.4719207447484615
  0.7573653226515155  0.9925263806153950  0.5280792552515386
  0.7573653226515155  0.5074736193846050  0.5280792552515386
  0.2426346773484846  0.0074736193846049  0.4719207447484615
  0.9152002826618356  0.0707757643509399  0.4406726195913821
  0.0847997173381644  0.5707757643509399  0.5593273804086180
  0.0847997173381644  0.9292242356490601  0.5593273804086180
  0.9152002826618356  0.4292242356490602  0.4406726195913821
  0.5245624690947323  0.0700158611737159  0.4389967319827723
  0.4754375309052676  0.5700158611737159  0.5610032680172279
  0.4754375309052676  0.9299841388262841  0.5610032680172279
  0.5245624690947323  0.4299841388262841  0.4389967319827723
  0.9490598668041570  0.0591237735697043  0.2010140099381315
  0.0509401331958431  0.5591237735697043  0.7989859900618685
  0.0509401331958431  0.9408762264302957  0.7989859900618685
  0.9490598668041570  0.4408762264303027  0.2010140099381315
  0.5496147558373135  0.9411530324925798  0.2985314349760556
  0.4503852441626866  0.4411530324925797  0.7014685650239444
  0.4503852441626866  0.0588469675074203  0.7014685650239444
  0.5847735452917024  0.9289328528952066  0.0592752443731172
  0.5496147558373135  0.5588469675074202  0.2985314349760556
  0.0245939963723141  0.4298226312356521  0.9390756611880398
  0.0245939963723141  0.0701773687643479  0.9390756611880398
  0.9754060036276859  0.5701773687643481  0.0609243388119603
  0.2317168926760566  0.7500000000000000  0.9745889483423867
  0.7682831073239434  0.2500000000000000  0.0254110516576130
  0.2582661054580497  0.2500000000000000  0.0681965713898321
  0.7417338945419500  0.7500000000000000  0.9318034286101678
  0.1562359342584420  0.7500000000000000  0.2710513631507340
  0.8437640657415579  0.2500000000000000  0.7289486368492661
  0.3431748748550296  0.2500000000000000  0.2287044482186117
  0.6568251251449704  0.7500000000000000  0.7712955517813882
  0.2408280379821404  0.7500000000000000  0.4319198774454694
  0.7591719620178669  0.2500000000000000  0.5680801225545307
  0.2688463580758430  0.2500000000000000  0.5253597987496437
  0.7311536419241569  0.7500000000000000  0.4746402012503563
  0.3339892554848226  0.5652112678461374  0.1475873599004204
  0.6660107445151774  0.0652112678461302  0.8524126400995866
  0.6660107445151774  0.4347887321538697  0.8524126400995866
  0.3339892554848226  0.9347887321538626  0.1475873599004204
  0.1657866729812920  0.4348793964792911  0.3522654579789576
  0.8342133270187009  0.9348793964792912  0.6477345420210424
  0.8342133270187009  0.5651206035207088  0.6477345420210424
  0.1657866729812920  0.0651206035207088  0.3522654579789576
  0.5847735452917024  0.5710671471047934  0.0592752443731172
  0.4152264547083045  0.0710671471048006  0.9407247556268826
  0.4152264547083045  0.4289328528951994  0.9407247556268826
  0.9754060036276859  0.9298226312356519  0.0609243388119603

  0.00000000E+00  0.00000000E+00  0.00000000E+00
  0.00000000E+00  0.00000000E+00  0.00000000E+00
  0.00000000E+00  0.00000000E+00  0.00000000E+00
  0.00000000E+00  0.00000000E+00  0.00000000E+00
  0.00000000E+00  0.00000000E+00  0.00000000E+00
  0.00000000E+00  0.00000000E+00  0.00000000E+00
  0.00000000E+00  0.00000000E+00  0.00000000E+00
  0.00000000E+00  0.00000000E+00  0.00000000E+00
  0.00000000E+00  0.00000000E+00  0.00000000E+00
  0.00000000E+00  0.00000000E+00  0.00000000E+00
  0.00000000E+00  0.00000000E+00  0.00000000E+00
  0.00000000E+00  0.00000000E+00  0.00000000E+00
  0.00000000E+00  0.00000000E+00  0.00000000E+00
  0.00000000E+00  0.00000000E+00  0.00000000E+00
  0.00000000E+00  0.00000000E+00  0.00000000E+00
  0.00000000E+00  0.00000000E+00  0.00000000E+00
  0.00000000E+00  0.00000000E+00  0.00000000E+00
  0.00000000E+00  0.00000000E+00  0.00000000E+00
  0.00000000E+00  0.00000000E+00  0.00000000E+00
  0.00000000E+00  0.00000000E+00  0.00000000E+00
  0.00000000E+00  0.00000000E+00  0.00000000E+00
  0.00000000E+00  0.00000000E+00  0.00000000E+00
  0.00000000E+00  0.00000000E+00  0.00000000E+00
  0.00000000E+00  0.00000000E+00  0.00000000E+00
  0.00000000E+00  0.00000000E+00  0.00000000E+00
  0.00000000E+00  0.00000000E+00  0.00000000E+00
  0.00000000E+00  0.00000000E+00  0.00000000E+00
  0.00000000E+00  0.00000000E+00  0.00000000E+00
  0.00000000E+00  0.00000000E+00  0.00000000E+00
  0.00000000E+00  0.00000000E+00  0.00000000E+00
  0.00000000E+00  0.00000000E+00  0.00000000E+00
  0.00000000E+00  0.00000000E+00  0.00000000E+00
  0.00000000E+00  0.00000000E+00  0.00000000E+00
  0.00000000E+00  0.00000000E+00  0.00000000E+00
  0.00000000E+00  0.00000000E+00  0.00000000E+00
  0.00000000E+00  0.00000000E+00  0.00000000E+00
  0.00000000E+00  0.00000000E+00  0.00000000E+00
  0.00000000E+00  0.00000000E+00  0.00000000E+00
  0.00000000E+00  0.00000000E+00  0.00000000E+00
  0.00000000E+00  0.00000000E+00  0.00000000E+00
  0.00000000E+00  0.00000000E+00  0.00000000E+00
  0.00000000E+00  0.00000000E+00  0.00000000E+00
  0.00000000E+00  0.00000000E+00  0.00000000E+00
  0.00000000E+00  0.00000000E+00  0.00000000E+00
  0.00000000E+00  0.00000000E+00  0.00000000E+00
  0.00000000E+00  0.00000000E+00  0.00000000E+00
  0.00000000E+00  0.00000000E+00  0.00000000E+00
  0.00000000E+00  0.00000000E+00  0.00000000E+00
  0.00000000E+00  0.00000000E+00  0.00000000E+00
  0.00000000E+00  0.00000000E+00  0.00000000E+00
  0.00000000E+00  0.00000000E+00  0.00000000E+00
  0.00000000E+00  0.00000000E+00  0.00000000E+00
  0.00000000E+00  0.00000000E+00  0.00000000E+00
  0.00000000E+00  0.00000000E+00  0.00000000E+00
  0.00000000E+00  0.00000000E+00  0.00000000E+00
  0.00000000E+00  0.00000000E+00  0.00000000E+00
  0.00000000E+00  0.00000000E+00  0.00000000E+00
  0.00000000E+00  0.00000000E+00  0.00000000E+00
  0.00000000E+00  0.00000000E+00  0.00000000E+00
  0.00000000E+00  0.00000000E+00  0.00000000E+00
  0.00000000E+00  0.00000000E+00  0.00000000E+00
  0.00000000E+00  0.00000000E+00  0.00000000E+00
  0.00000000E+00  0.00000000E+00  0.00000000E+00
  0.00000000E+00  0.00000000E+00  0.00000000E+00
