Na6  La2  I12                           
   1.4999999999999998     
     6.1376586607044432   -0.0000000000000000    0.0000000000000000
     0.0000000000000000    5.8936316775532465    0.0000000000000000
     0.0000000000000000    0.0000000000000000    8.4716819140174451
  I               Na              La            
    12     6     2
Direct
  0.2255813216465086  0.2734346110093497  0.0000000000000000
  0.7744186783534914  0.2734346110093497  0.0000000000000000
  0.2255813216465086  0.7265653889906503  0.0000000000000000
  0.7744186783534914  0.7265653889906503  0.0000000000000000
  0.5000000000000000  0.5000000000000000  0.2540149689753832
  0.0000000000000000  0.0000000000000000  0.2459850310246168
  0.2744186783534914  0.2265653889906503  0.5000000000000000
  0.7255813216465086  0.2265653889906503  0.5000000000000000
  0.2744186783534914  0.7734346110093497  0.5000000000000000
  0.7255813216465086  0.7734346110093497  0.5000000000000000
  0.0000000000000000  0.0000000000000000  0.7540149689753832
  0.5000000000000000  0.5000000000000000  0.7459850310246168
  0.5000000000000000  0.5000000000000000  0.0000000000000000
  0.0000000000000000  0.5000000000000000  0.1321381940717146
  0.5000000000000000  0.0000000000000000  0.3678618059282854
  0.0000000000000000  0.0000000000000000  0.5000000000000000
  0.5000000000000000  0.0000000000000000  0.6321381940717146
  0.0000000000000000  0.5000000000000000  0.8678618059282854
  0.0000000000000000  0.0000000000000000  0.0000000000000000
  0.5000000000000000  0.5000000000000000  0.5000000000000000

  0.00000000E+00  0.00000000E+00  0.00000000E+00
  0.00000000E+00  0.00000000E+00  0.00000000E+00
  0.00000000E+00  0.00000000E+00  0.00000000E+00
  0.00000000E+00  0.00000000E+00  0.00000000E+00
  0.00000000E+00  0.00000000E+00  0.00000000E+00
  0.00000000E+00  0.00000000E+00  0.00000000E+00
  0.00000000E+00  0.00000000E+00  0.00000000E+00
  0.00000000E+00  0.00000000E+00  0.00000000E+00
  0.00000000E+00  0.00000000E+00  0.00000000E+00
  0.00000000E+00  0.00000000E+00  0.00000000E+00
  0.00000000E+00  0.00000000E+00  0.00000000E+00
  0.00000000E+00  0.00000000E+00  0.00000000E+00
  0.00000000E+00  0.00000000E+00  0.00000000E+00
  0.00000000E+00  0.00000000E+00  0.00000000E+00
  0.00000000E+00  0.00000000E+00  0.00000000E+00
  0.00000000E+00  0.00000000E+00  0.00000000E+00
  0.00000000E+00  0.00000000E+00  0.00000000E+00
  0.00000000E+00  0.00000000E+00  0.00000000E+00
  0.00000000E+00  0.00000000E+00  0.00000000E+00
  0.00000000E+00  0.00000000E+00  0.00000000E+00
