Na9  La3  I18                           
   1.2500000000000000     
     5.4960266668419653   -9.5193974267237103   -0.0000000000000000
     5.4960266668419653    9.5193974267237103    0.0000000000000000
     0.0000000000000000   -0.0000000000000000    6.1384245883123452
  Na              La              I             
     9     3    18
Direct
  0.0000000000000000  0.6767388572903172  0.5000000000000000
  0.0000000000000000  0.6637647272362912  0.0000000000000000
  0.3232611427096828  0.3232611427096828  0.5000000000000000
  0.3362352727637088  0.3362352727637088  0.0000000000000000
  0.6574156483950091  0.6574156483950091  0.0000000000000000
  0.3425843516049909  0.0000000000000000  0.0000000000000000
  0.6637647272362912  0.0000000000000000  0.0000000000000000
  0.6767388572903172  0.0000000000000000  0.5000000000000000
  0.0000000000000000  0.3425843516049909  0.0000000000000000
  0.3333333333333357  0.6666666666666643  0.5028400221020277
  0.0000000000000000  0.0000000000000000  0.0000000000000000
  0.6666666666666643  0.3333333333333357  0.4971599778979723
  0.1130762648152057  0.8904727237842351  0.7692766110640008
  0.1138422184582168  0.5636302546376086  0.7430247427961021
  0.2206147440069657  0.7733969097459621  0.2633967783044895
  0.2266030902540379  0.4472178342610036  0.2633967783044895
  0.4497880361793989  0.8861577815417832  0.7430247427961021
  0.1095272762157649  0.2226035410309777  0.7692766110640008
  0.5527821657389964  0.7793852559930343  0.2633967783044895
  0.4363697453623914  0.5502119638206011  0.7430247427961021
  0.2226035410309777  0.1095272762157649  0.2307233889359992
  0.7773964589690223  0.8869237351847943  0.7692766110640008
  0.5502119638206011  0.4363697453623914  0.2569752572038979
  0.4472178342610036  0.2266030902540379  0.7366032216955105
  0.8869237351847943  0.7773964589690223  0.2307233889359992
  0.5636302546376086  0.1138422184582168  0.2569752572038979
  0.7793852559930343  0.5527821657389964  0.7366032216955105
  0.7733969097459621  0.2206147440069657  0.7366032216955105
  0.8861577815417832  0.4497880361793989  0.2569752572038979
  0.8904727237842351  0.1130762648152057  0.2307233889359992

  0.00000000E+00  0.00000000E+00  0.00000000E+00
  0.00000000E+00  0.00000000E+00  0.00000000E+00
  0.00000000E+00  0.00000000E+00  0.00000000E+00
  0.00000000E+00  0.00000000E+00  0.00000000E+00
  0.00000000E+00  0.00000000E+00  0.00000000E+00
  0.00000000E+00  0.00000000E+00  0.00000000E+00
  0.00000000E+00  0.00000000E+00  0.00000000E+00
  0.00000000E+00  0.00000000E+00  0.00000000E+00
  0.00000000E+00  0.00000000E+00  0.00000000E+00
  0.00000000E+00  0.00000000E+00  0.00000000E+00
  0.00000000E+00  0.00000000E+00  0.00000000E+00
  0.00000000E+00  0.00000000E+00  0.00000000E+00
  0.00000000E+00  0.00000000E+00  0.00000000E+00
  0.00000000E+00  0.00000000E+00  0.00000000E+00
  0.00000000E+00  0.00000000E+00  0.00000000E+00
  0.00000000E+00  0.00000000E+00  0.00000000E+00
  0.00000000E+00  0.00000000E+00  0.00000000E+00
  0.00000000E+00  0.00000000E+00  0.00000000E+00
  0.00000000E+00  0.00000000E+00  0.00000000E+00
  0.00000000E+00  0.00000000E+00  0.00000000E+00
  0.00000000E+00  0.00000000E+00  0.00000000E+00
  0.00000000E+00  0.00000000E+00  0.00000000E+00
  0.00000000E+00  0.00000000E+00  0.00000000E+00
  0.00000000E+00  0.00000000E+00  0.00000000E+00
  0.00000000E+00  0.00000000E+00  0.00000000E+00
  0.00000000E+00  0.00000000E+00  0.00000000E+00
  0.00000000E+00  0.00000000E+00  0.00000000E+00
  0.00000000E+00  0.00000000E+00  0.00000000E+00
  0.00000000E+00  0.00000000E+00  0.00000000E+00
  0.00000000E+00  0.00000000E+00  0.00000000E+00
