Na4  La4  I16                           
   1.1000000000000001     
     8.7552973562405896    0.0000000000000000   -0.4402196550055316
     0.0000000000000000    7.7025294973650862    0.0000000000000000
    -1.5759502339525941    0.0000000000000000   14.0667461680201136
  I               La              Na            
    16     4     4
Direct
  0.6903314990623031  0.6547371130146260  0.0239352629220519
  0.2018810262903159  0.8735944378200102  0.0641451239097037
  0.0257116942649489  0.2489040165452110  0.2057639548823929
  0.5933888863039485  0.0107198635160302  0.2372304464813553
  0.4066111136960515  0.5107198635160302  0.2627695535186447
  0.9742883057350511  0.7489040165452110  0.2942360451176071
  0.7981189737096841  0.3735944378200102  0.4358548760902963
  0.3096685009376969  0.1547371130146260  0.4760647370779481
  0.6903314990623031  0.8452628869853740  0.5239352629220519
  0.2018810262903159  0.6264055621799898  0.5641451239096966
  0.0257116942649489  0.2510959834547890  0.7057639548823929
  0.5933888863039485  0.4892801364839698  0.7372304464813553
  0.4066111136960515  0.9892801364839698  0.7627695535186447
  0.9742883057350511  0.7510959834547890  0.7942360451176071
  0.7981189737096841  0.1264055621799898  0.9358548760903034
  0.3096685009376969  0.3452628869853740  0.9760647370779481
  0.3137881844330082  0.1879157963575722  0.1505483923431896
  0.6862118155669918  0.6879157963575722  0.3494516076568104
  0.3137881844330082  0.3120842036424278  0.6505483923431896
  0.6862118155669918  0.8120842036424278  0.8494516076568104
  0.8906124738758052  0.9310028648071125  0.1128254762068366
  0.1093875261241877  0.4310028648071125  0.3871745237931634
  0.8906124738758052  0.5689971351928875  0.6128254762068366
  0.1093875261241877  0.0689971351928875  0.8871745237931634

  0.00000000E+00  0.00000000E+00  0.00000000E+00
  0.00000000E+00  0.00000000E+00  0.00000000E+00
  0.00000000E+00  0.00000000E+00  0.00000000E+00
  0.00000000E+00  0.00000000E+00  0.00000000E+00
  0.00000000E+00  0.00000000E+00  0.00000000E+00
  0.00000000E+00  0.00000000E+00  0.00000000E+00
  0.00000000E+00  0.00000000E+00  0.00000000E+00
  0.00000000E+00  0.00000000E+00  0.00000000E+00
  0.00000000E+00  0.00000000E+00  0.00000000E+00
  0.00000000E+00  0.00000000E+00  0.00000000E+00
  0.00000000E+00  0.00000000E+00  0.00000000E+00
  0.00000000E+00  0.00000000E+00  0.00000000E+00
  0.00000000E+00  0.00000000E+00  0.00000000E+00
  0.00000000E+00  0.00000000E+00  0.00000000E+00
  0.00000000E+00  0.00000000E+00  0.00000000E+00
  0.00000000E+00  0.00000000E+00  0.00000000E+00
  0.00000000E+00  0.00000000E+00  0.00000000E+00
  0.00000000E+00  0.00000000E+00  0.00000000E+00
  0.00000000E+00  0.00000000E+00  0.00000000E+00
  0.00000000E+00  0.00000000E+00  0.00000000E+00
  0.00000000E+00  0.00000000E+00  0.00000000E+00
  0.00000000E+00  0.00000000E+00  0.00000000E+00
  0.00000000E+00  0.00000000E+00  0.00000000E+00
  0.00000000E+00  0.00000000E+00  0.00000000E+00
