Na3  La2  I9                            
   1.1499999999999999     
    10.7881342511837790    1.0959209739697822    0.9732246315811285
     5.6188671086003508    8.6226376018223423    1.8830858029440680
    -0.1083024761258174    0.6522184749335883    6.9501272991849108
  Na              La              I             
     3     2     9
Direct
  0.0594021675465086  0.8522722156134321  0.1799022754213269
  0.2542661898352776  0.3972781541904666  0.1755816110154385
  0.5628288981775782  0.5859373705091784  0.0994875219872640
  0.2546696666585149  0.6963159995133523  0.7037032507163445
  0.3516863054058703  0.9773168294281902  0.2274603741386443
  0.1980164710176666  0.5639260746988626  0.4711536370510103
  0.0162978107079539  0.7359011835694176  0.9161229347453883
  0.4894664945701166  0.4100354681680187  0.9837383427423703
  0.0833063559059113  0.0130602532652730  0.4144562398052756
  0.5074694518939964  0.6404776451279091  0.4874251871744590
  0.2544206496020180  0.8834186306766654  0.9355320981007722
  0.4245629645112672  0.0909097677038559  0.4578796996021168
  0.6222154802114090  0.8037079412798676  0.0522142501285927
  0.1451911039558880  0.2865024662555200  0.9844225873709860

  0.00000000E+00  0.00000000E+00  0.00000000E+00
  0.00000000E+00  0.00000000E+00  0.00000000E+00
  0.00000000E+00  0.00000000E+00  0.00000000E+00
  0.00000000E+00  0.00000000E+00  0.00000000E+00
  0.00000000E+00  0.00000000E+00  0.00000000E+00
  0.00000000E+00  0.00000000E+00  0.00000000E+00
  0.00000000E+00  0.00000000E+00  0.00000000E+00
  0.00000000E+00  0.00000000E+00  0.00000000E+00
  0.00000000E+00  0.00000000E+00  0.00000000E+00
  0.00000000E+00  0.00000000E+00  0.00000000E+00
  0.00000000E+00  0.00000000E+00  0.00000000E+00
  0.00000000E+00  0.00000000E+00  0.00000000E+00
  0.00000000E+00  0.00000000E+00  0.00000000E+00
  0.00000000E+00  0.00000000E+00  0.00000000E+00
