Na5  La1  I8                            
   1.2000000000000000     
     6.7133946970670557   -0.0093878951664975    0.0000000000000000
    -2.2421447893152209    6.3279186631954767    0.0000000000000000
     0.0000000000000000    0.0000000000000000    7.7594316921095103
  Na              La              I             
     5     1     8
Direct
  0.5000000000000000  0.0000000000000000  0.2348730064911919
  0.0000000000000000  0.5000000000000000  0.7651269935088081
  0.5000000000000000  0.0000000000000000  0.7651269935088081
  0.0000000000000000  0.5000000000000000  0.2348730064911919
  0.5000000000000000  0.5000000000000000  0.0000000000000000
  0.5000000000000000  0.5000000000000000  0.5000000000000000
  0.2586903225822823  0.2586903225828223  0.2580338017913775
  0.7413096774177177  0.7413096774171848  0.2580338017913775
  0.2563608702766018  0.7436390997249731  0.5000000000000000
  0.2586903225822823  0.2586903225828223  0.7419661982086225
  0.7413096774177177  0.7413096774171848  0.7419661982086225
  0.2566148832009461  0.7433851467974577  0.0000000000000000
  0.7436390997233957  0.2563608702750244  0.5000000000000000
  0.7433851467990564  0.2566148832025448  0.0000000000000000

  0.00000000E+00  0.00000000E+00  0.00000000E+00
  0.00000000E+00  0.00000000E+00  0.00000000E+00
  0.00000000E+00  0.00000000E+00  0.00000000E+00
  0.00000000E+00  0.00000000E+00  0.00000000E+00
  0.00000000E+00  0.00000000E+00  0.00000000E+00
  0.00000000E+00  0.00000000E+00  0.00000000E+00
  0.00000000E+00  0.00000000E+00  0.00000000E+00
  0.00000000E+00  0.00000000E+00  0.00000000E+00
  0.00000000E+00  0.00000000E+00  0.00000000E+00
  0.00000000E+00  0.00000000E+00  0.00000000E+00
  0.00000000E+00  0.00000000E+00  0.00000000E+00
  0.00000000E+00  0.00000000E+00  0.00000000E+00
  0.00000000E+00  0.00000000E+00  0.00000000E+00
  0.00000000E+00  0.00000000E+00  0.00000000E+00
