Na17  La5  I32                          
   1.2500000000000000     
    10.5574334779240342    0.0822973294093493    0.0445812514742712
     0.0814839511703904   10.3500938405250658    0.0232276240272447
     0.0447248099386825    0.0238240345669792   10.7457101690670420
  Na              La              I             
    17     5    32
Direct
  0.2535366992843606  0.7524720369487525  0.0011422398062422
  0.7515691114066172  0.2547230648223149  0.0108104110118319
  0.7456971740404370  0.0053178394149782  0.2443511805370804
  0.2524550439134146  0.0020443973346715  0.7506096967377687
  0.0109190209585606  0.2580378136625612  0.7506058878729576
  0.0090654768059508  0.7478653385482303  0.2504003177964051
  0.2451965057638574  0.2524468624598484  0.5038804569236248
  0.7569219293542204  0.5040016587822009  0.7560268237191252
  0.2483721373810823  0.5045374613038902  0.2539444010357386
  0.5043809711426732  0.2486693082297435  0.2474560537835657
  0.4956735878327549  0.7508332060880321  0.7517421038433127
  0.6353931386753544  0.1482608900069735  0.6481821422274976
  0.9934255442298294  0.9989916130054652  0.9849432832479863
  0.2509905036992350  0.5035399577288331  0.7510635191273280
  0.2563952234178188  0.9963310048079990  0.2536504460495408
  0.5100429572423479  0.5062618363980462  0.0164974210872444
  0.9942989949829837  0.2562235556576127  0.2570976074726730
  0.4949318166652148  0.4974790649789753  0.4967371420127265
  0.5035036369433499  0.0031525900789902  0.0015538159371928
  0.7525184508080187  0.7442973392022765  0.4990145439489240
  0.0005617412925574  0.5059459573898764  0.0026944289107718
  0.0099495853274334  0.0026834600449064  0.5094554082579137
  0.2470198840974049  0.2493405659411252  0.2679111347284859
  0.7421906472836994  0.7485898271647997  0.7316989164470087
  0.4960069797241644  0.0005183205085757  0.7637099991793050
  0.4997119206741445  0.9994674936502506  0.2375962131270981
  0.9958850299648532  0.7539845882701144  0.5023682644501335
  0.9930091492175421  0.2435375828696351  0.5013537647654971
  0.7592775571297423  0.5087154129637952  0.9996468634772526
  0.2460782012176068  0.4986866402614467  0.0017562454345139
  0.0035419268747816  0.5008066775836966  0.2397257935114183
  0.0056842203673000  0.5085009754581549  0.7674845165116224
  0.5043264558167877  0.2503198456643645  0.0050123613646136
  0.5041763706346529  0.7569130864464029  0.9962157289623974
  0.2451570156316762  0.9942843655956608  0.5010476104483885
  0.7606012245925200  0.9965224502282837  0.4985194385571887
  0.2615190880208544  0.7522941149697147  0.7651429450809744
  0.7517313701735659  0.2427207782424219  0.2445912793453076
  0.4945403377383712  0.4985987984446822  0.2600134175634210
  0.5033785850729515  0.4979391862824585  0.7366323160713648
  0.0036942646140261  0.2554017096026939  0.0083171391580450
  0.0013717432631921  0.7511309344524619  0.0079117557334527
  0.0051091809193551  0.0022272163072188  0.7438221573495483
  0.0030114602092084  0.0023834600884953  0.2656524289456428
  0.5094217058302846  0.7461484981421975  0.4966587770178990
  0.4980077307044368  0.2533027952717504  0.4910010507150773
  0.7747840283431060  0.2659333123211383  0.7738925781332000
  0.2430743371176760  0.7520096691952531  0.2381660237452294
  0.2586283718605671  0.5084594347836884  0.5029755153124640
  0.7415393391295240  0.4983870612271488  0.5007550345397718
  0.7450973003174042  0.9997882689040836  0.0028565946438235
  0.2580889464219425  0.0069192432217307  0.0029778766072823
  0.7633579978681055  0.7595510135760293  0.2668398928592808
  0.2441783780004343  0.2525004154653843  0.7358870348658542

  0.00000000E+00  0.00000000E+00  0.00000000E+00
  0.00000000E+00  0.00000000E+00  0.00000000E+00
  0.00000000E+00  0.00000000E+00  0.00000000E+00
  0.00000000E+00  0.00000000E+00  0.00000000E+00
  0.00000000E+00  0.00000000E+00  0.00000000E+00
  0.00000000E+00  0.00000000E+00  0.00000000E+00
  0.00000000E+00  0.00000000E+00  0.00000000E+00
  0.00000000E+00  0.00000000E+00  0.00000000E+00
  0.00000000E+00  0.00000000E+00  0.00000000E+00
  0.00000000E+00  0.00000000E+00  0.00000000E+00
  0.00000000E+00  0.00000000E+00  0.00000000E+00
  0.00000000E+00  0.00000000E+00  0.00000000E+00
  0.00000000E+00  0.00000000E+00  0.00000000E+00
  0.00000000E+00  0.00000000E+00  0.00000000E+00
  0.00000000E+00  0.00000000E+00  0.00000000E+00
  0.00000000E+00  0.00000000E+00  0.00000000E+00
  0.00000000E+00  0.00000000E+00  0.00000000E+00
  0.00000000E+00  0.00000000E+00  0.00000000E+00
  0.00000000E+00  0.00000000E+00  0.00000000E+00
  0.00000000E+00  0.00000000E+00  0.00000000E+00
  0.00000000E+00  0.00000000E+00  0.00000000E+00
  0.00000000E+00  0.00000000E+00  0.00000000E+00
  0.00000000E+00  0.00000000E+00  0.00000000E+00
  0.00000000E+00  0.00000000E+00  0.00000000E+00
  0.00000000E+00  0.00000000E+00  0.00000000E+00
  0.00000000E+00  0.00000000E+00  0.00000000E+00
  0.00000000E+00  0.00000000E+00  0.00000000E+00
  0.00000000E+00  0.00000000E+00  0.00000000E+00
  0.00000000E+00  0.00000000E+00  0.00000000E+00
  0.00000000E+00  0.00000000E+00  0.00000000E+00
  0.00000000E+00  0.00000000E+00  0.00000000E+00
  0.00000000E+00  0.00000000E+00  0.00000000E+00
  0.00000000E+00  0.00000000E+00  0.00000000E+00
  0.00000000E+00  0.00000000E+00  0.00000000E+00
  0.00000000E+00  0.00000000E+00  0.00000000E+00
  0.00000000E+00  0.00000000E+00  0.00000000E+00
  0.00000000E+00  0.00000000E+00  0.00000000E+00
  0.00000000E+00  0.00000000E+00  0.00000000E+00
  0.00000000E+00  0.00000000E+00  0.00000000E+00
  0.00000000E+00  0.00000000E+00  0.00000000E+00
  0.00000000E+00  0.00000000E+00  0.00000000E+00
  0.00000000E+00  0.00000000E+00  0.00000000E+00
  0.00000000E+00  0.00000000E+00  0.00000000E+00
  0.00000000E+00  0.00000000E+00  0.00000000E+00
  0.00000000E+00  0.00000000E+00  0.00000000E+00
  0.00000000E+00  0.00000000E+00  0.00000000E+00
  0.00000000E+00  0.00000000E+00  0.00000000E+00
  0.00000000E+00  0.00000000E+00  0.00000000E+00
  0.00000000E+00  0.00000000E+00  0.00000000E+00
  0.00000000E+00  0.00000000E+00  0.00000000E+00
  0.00000000E+00  0.00000000E+00  0.00000000E+00
  0.00000000E+00  0.00000000E+00  0.00000000E+00
  0.00000000E+00  0.00000000E+00  0.00000000E+00
  0.00000000E+00  0.00000000E+00  0.00000000E+00
