Na2  La1  I6                            
   1.4500000000000000     
     3.0049925004502565   -5.2047996871432876    0.0000000000000000
     3.0049925004502565    5.2047996871432876    0.0000000000000000
     0.0000000000000000    0.0000000000000000    3.5300426507815628
  Na              La              I             
     2     1     6
Direct
  0.3333333333333357  0.6666666666666643  0.5000000000000000
  0.6666666666666643  0.3333333333333357  0.5000000000000000
  1.0000000000000000  0.0000000000000000  1.0000000000000000
  0.6200402483289830  1.0000000000000000  0.0000000000000000
  1.0000000000000000  0.6200402483289830  1.0000000000000000
  0.3799597516710170  0.3799597516710170  1.0000000000000000
  0.2576032699235067  0.0000000000000000  0.5000000000000000
  1.0000000000000000  0.2576032699235067  0.5000000000000000
  0.7423967300764933  0.7423967300764933  0.5000000000000000

  0.00000000E+00  0.00000000E+00  0.00000000E+00
  0.00000000E+00  0.00000000E+00  0.00000000E+00
  0.00000000E+00  0.00000000E+00  0.00000000E+00
  0.00000000E+00  0.00000000E+00  0.00000000E+00
  0.00000000E+00  0.00000000E+00  0.00000000E+00
  0.00000000E+00  0.00000000E+00  0.00000000E+00
  0.00000000E+00  0.00000000E+00  0.00000000E+00
  0.00000000E+00  0.00000000E+00  0.00000000E+00
  0.00000000E+00  0.00000000E+00  0.00000000E+00
