Na18  La6  I36                          
   1.6000000000000001     
     8.6700166653028088    0.0000000000000000    0.0000000000000000
    -4.3350083326514044    7.5084546833437686   -0.0000000000000000
    -0.0000000000000000    0.0000000000000000    9.4577153323008289
  Na              La              I             
    18     6    36
Direct
  0.3356345824094120  0.3405704653630792  0.9826274648711788
  0.6709445056803247  0.0000000000000000  0.2500000000000000
  0.6709445366803237  0.6709445666803262  0.7500000249999985
  0.9950641010463244  0.6594295286369203  0.5173725351288212
  0.6643654285905853  0.6594295286369203  0.0173725591288232
  0.3356345944094130  0.9950641450463280  0.4826274648711788
  0.6594295186369195  0.6643654095905873  0.4826274648711788
  0.3290554783196740  0.3290554903196750  0.2500000000000000
  0.0000000300000025  0.6709445666803262  0.2500000000000000
  0.3290554673196766  0.0000000000000000  0.7500000249999985
  0.0049358969536613  0.3405704653630792  0.4826274648711788
  0.3405704403630807  0.0049358899536713  0.0173725591288232
  0.0049358909536608  0.6643654095905873  0.9826274648711788
  0.6643654235905885  0.0049358899536713  0.5173725351288212
  0.9950641070463320  0.3356345854094158  0.0173725591288232
  0.6594295506369221  0.9950641450463280  0.9826274648711788
  0.0000000109999974  0.3290554903196750  0.7500000249999985
  0.3405704513630781  0.3356345854094158  0.5173725351288212
  0.6666666810000024  0.3333333630000013  0.2525187536577889
  0.6666666810000024  0.3333333630000013  0.7525187536577889
  0.0000000000000000  0.0000000000000000  0.0000000000000000
  0.3333333630000013  0.6666667249999989  0.2474812463422111
  0.0000000000000000  0.0000000000000000  0.5000000000000000
  0.3333333630000013  0.6666667249999989  0.7474812463422111
  0.8828293248479397  0.7783102263647024  0.8846466273295022
  0.7837015402489556  0.5492909626914368  0.1300791589781127
  0.4507089903085699  0.2344105475575162  0.1300791589781127
  0.1171706961520513  0.8954809275167577  0.6153533726704978
  0.7837015572489534  0.2344105475575162  0.6300791709781066
  0.8828293008479378  0.1045190674832455  0.3846466023295037
  0.5492909876914354  0.7655894624424775  0.8699208290218934
  0.7783101773647019  0.8954809275167577  0.1153533976704963
  0.5668539968489483  0.1161496587126720  0.3747454217980177
  0.8954809135167565  0.1171707161520530  0.8846466273295022
  0.1045190564832481  0.2216897836352985  0.6153533726704978
  0.7655894054424834  0.2162984677510451  0.1300791589781127
  0.5492957148637316  0.1161496587126720  0.8747453727980172
  0.2162984737510456  0.7655894624424775  0.3699208540218919
  0.8838503902873285  0.4507043111362705  0.3747454217980177
  0.1045190804832430  0.8828293248479397  0.1153533976704963
  0.7783101913647030  0.8828293248479397  0.6153533726704978
  0.4507090093085679  0.2162984677510451  0.6300791709781066
  0.2216898026352965  0.1171707161520530  0.3846466023295037
  0.4331460691510571  0.8838504212873275  0.6252546272019828
  0.2216897936352993  0.1045190674832455  0.8846466273295022
  0.1171707071520558  0.2216897836352985  0.1153533976704963
  0.4507043251362717  0.8838504212873275  0.1252545902019833
  0.8838503732873306  0.4331460481510518  0.8747453727980172
  0.7655894224424884  0.5492909626914368  0.6300791709781066
  0.2344105455575161  0.4507090003085636  0.3699208540218919
  0.1161496547126717  0.5668540088489422  0.1252545902019833
  0.2344105385575119  0.7837015262489544  0.8699208290218934
  0.2162984547510476  0.4507090003085636  0.8699208290218934
  0.1161496337126735  0.5492956838637326  0.6252546272019828
  0.8954809555167529  0.7783102263647024  0.3846466023295037
  0.5668540008489487  0.4507043111362705  0.8747453727980172
  0.5492957278637292  0.4331460481510518  0.3747454217980177
  0.4507043001362661  0.5668540088489422  0.6252546272019828
  0.4331460231510533  0.5492956838637326  0.1252545902019833
  0.5492909616914332  0.7837015262489544  0.3699208540218919

  0.00000000E+00  0.00000000E+00  0.00000000E+00
  0.00000000E+00  0.00000000E+00  0.00000000E+00
  0.00000000E+00  0.00000000E+00  0.00000000E+00
  0.00000000E+00  0.00000000E+00  0.00000000E+00
  0.00000000E+00  0.00000000E+00  0.00000000E+00
  0.00000000E+00  0.00000000E+00  0.00000000E+00
  0.00000000E+00  0.00000000E+00  0.00000000E+00
  0.00000000E+00  0.00000000E+00  0.00000000E+00
  0.00000000E+00  0.00000000E+00  0.00000000E+00
  0.00000000E+00  0.00000000E+00  0.00000000E+00
  0.00000000E+00  0.00000000E+00  0.00000000E+00
  0.00000000E+00  0.00000000E+00  0.00000000E+00
  0.00000000E+00  0.00000000E+00  0.00000000E+00
  0.00000000E+00  0.00000000E+00  0.00000000E+00
  0.00000000E+00  0.00000000E+00  0.00000000E+00
  0.00000000E+00  0.00000000E+00  0.00000000E+00
  0.00000000E+00  0.00000000E+00  0.00000000E+00
  0.00000000E+00  0.00000000E+00  0.00000000E+00
  0.00000000E+00  0.00000000E+00  0.00000000E+00
  0.00000000E+00  0.00000000E+00  0.00000000E+00
  0.00000000E+00  0.00000000E+00  0.00000000E+00
  0.00000000E+00  0.00000000E+00  0.00000000E+00
  0.00000000E+00  0.00000000E+00  0.00000000E+00
  0.00000000E+00  0.00000000E+00  0.00000000E+00
  0.00000000E+00  0.00000000E+00  0.00000000E+00
  0.00000000E+00  0.00000000E+00  0.00000000E+00
  0.00000000E+00  0.00000000E+00  0.00000000E+00
  0.00000000E+00  0.00000000E+00  0.00000000E+00
  0.00000000E+00  0.00000000E+00  0.00000000E+00
  0.00000000E+00  0.00000000E+00  0.00000000E+00
  0.00000000E+00  0.00000000E+00  0.00000000E+00
  0.00000000E+00  0.00000000E+00  0.00000000E+00
  0.00000000E+00  0.00000000E+00  0.00000000E+00
  0.00000000E+00  0.00000000E+00  0.00000000E+00
  0.00000000E+00  0.00000000E+00  0.00000000E+00
  0.00000000E+00  0.00000000E+00  0.00000000E+00
  0.00000000E+00  0.00000000E+00  0.00000000E+00
  0.00000000E+00  0.00000000E+00  0.00000000E+00
  0.00000000E+00  0.00000000E+00  0.00000000E+00
  0.00000000E+00  0.00000000E+00  0.00000000E+00
  0.00000000E+00  0.00000000E+00  0.00000000E+00
  0.00000000E+00  0.00000000E+00  0.00000000E+00
  0.00000000E+00  0.00000000E+00  0.00000000E+00
  0.00000000E+00  0.00000000E+00  0.00000000E+00
  0.00000000E+00  0.00000000E+00  0.00000000E+00
  0.00000000E+00  0.00000000E+00  0.00000000E+00
  0.00000000E+00  0.00000000E+00  0.00000000E+00
  0.00000000E+00  0.00000000E+00  0.00000000E+00
  0.00000000E+00  0.00000000E+00  0.00000000E+00
  0.00000000E+00  0.00000000E+00  0.00000000E+00
  0.00000000E+00  0.00000000E+00  0.00000000E+00
  0.00000000E+00  0.00000000E+00  0.00000000E+00
  0.00000000E+00  0.00000000E+00  0.00000000E+00
  0.00000000E+00  0.00000000E+00  0.00000000E+00
  0.00000000E+00  0.00000000E+00  0.00000000E+00
  0.00000000E+00  0.00000000E+00  0.00000000E+00
  0.00000000E+00  0.00000000E+00  0.00000000E+00
  0.00000000E+00  0.00000000E+00  0.00000000E+00
  0.00000000E+00  0.00000000E+00  0.00000000E+00
  0.00000000E+00  0.00000000E+00  0.00000000E+00
