Na12  La4  I24                          
   1.6000000000000001     
     0.0000000000000000    8.9126546455654978   -0.3483699041893621
     5.5997611238940301    0.0000000000000000    0.0000000000000000
     0.0000000000000000   -0.7565150070896346   -9.1173249963111562
  Na              La              I             
    12     4    24
Direct
  0.8571259544497778  0.2035132912539979  0.9534576244999968
  0.8571259544497778  0.7964867087460021  0.4534576244999968
  0.5893093153381059  0.1527343852411533  0.0957292432128369
  0.7116648131625993  0.6288220602284724  0.8591843888890196
  0.7116648131625993  0.3711779397715276  0.3591843888890196
  0.5893093153381059  0.8472656147588467  0.5957292432128369
  0.3571259544497778  0.7035132912539979  0.9534576244999968
  0.3571259544497778  0.2964867087460021  0.4534576244999968
  0.0893093153381059  0.6527343852411533  0.0957292432128369
  0.2116648131625993  0.1288220602284724  0.8591843888890196
  0.2116648131625993  0.8711779397715276  0.3591843888890196
  0.0893093153381059  0.3472656147588467  0.5957292432128369
  0.8422123595628790  0.8422656552275640  0.1423712757050879
  0.8422123595628790  0.1577343447724360  0.6423712757050879
  0.3422123595628861  0.3422656552275640  0.1423712757050879
  0.3422123595628861  0.6577343447724360  0.6423712757050879
  0.8739987913083525  0.5484658680696697  0.0220968886745965
  0.6975949878324528  0.0725855812898146  0.4780738384108076
  0.7075565982014496  0.7046256378897127  0.2872475034941857
  0.7075565982014496  0.2953743621102802  0.7872475034941857
  0.0035083146863784  0.7456326395076616  0.2870027401790765
  0.0128145165313285  0.9751037742831272  0.0334599875944122
  0.0128145165313285  0.0248962257168728  0.5334599875944122
  0.0035083146863784  0.2543673604923384  0.7870027401790765
  0.7966803489266923  0.1772045682252710  0.1959295093399760
  0.7966803489266923  0.8227954317747290  0.6959295093399760
  0.6975949878324528  0.9274144187101854  0.9780738384108076
  0.8739987913083525  0.4515341319303303  0.5220968886745965
  0.3739987913083525  0.0484658680696697  0.0220968886745965
  0.1975949878324528  0.5725855812898146  0.4780738384108076
  0.2075565982014496  0.2046256378897127  0.2872475034941857
  0.2075565982014496  0.7953743621102873  0.7872475034941857
  0.5035083146863784  0.2456326395076616  0.2870027401790765
  0.5128145165313285  0.4751037742831272  0.0334599875944122
  0.5128145165313285  0.5248962257168728  0.5334599875944122
  0.5035083146863784  0.7543673604923384  0.7870027401790765
  0.2966803489266923  0.6772045682252710  0.1959295093399760
  0.2966803489266923  0.3227954317747290  0.6959295093399760
  0.1975949878324528  0.4274144187101854  0.9780738384108076
  0.3739987913083525  0.9515341319303303  0.5220968886745965

  0.00000000E+00  0.00000000E+00  0.00000000E+00
  0.00000000E+00  0.00000000E+00  0.00000000E+00
  0.00000000E+00  0.00000000E+00  0.00000000E+00
  0.00000000E+00  0.00000000E+00  0.00000000E+00
  0.00000000E+00  0.00000000E+00  0.00000000E+00
  0.00000000E+00  0.00000000E+00  0.00000000E+00
  0.00000000E+00  0.00000000E+00  0.00000000E+00
  0.00000000E+00  0.00000000E+00  0.00000000E+00
  0.00000000E+00  0.00000000E+00  0.00000000E+00
  0.00000000E+00  0.00000000E+00  0.00000000E+00
  0.00000000E+00  0.00000000E+00  0.00000000E+00
  0.00000000E+00  0.00000000E+00  0.00000000E+00
  0.00000000E+00  0.00000000E+00  0.00000000E+00
  0.00000000E+00  0.00000000E+00  0.00000000E+00
  0.00000000E+00  0.00000000E+00  0.00000000E+00
  0.00000000E+00  0.00000000E+00  0.00000000E+00
  0.00000000E+00  0.00000000E+00  0.00000000E+00
  0.00000000E+00  0.00000000E+00  0.00000000E+00
  0.00000000E+00  0.00000000E+00  0.00000000E+00
  0.00000000E+00  0.00000000E+00  0.00000000E+00
  0.00000000E+00  0.00000000E+00  0.00000000E+00
  0.00000000E+00  0.00000000E+00  0.00000000E+00
  0.00000000E+00  0.00000000E+00  0.00000000E+00
  0.00000000E+00  0.00000000E+00  0.00000000E+00
  0.00000000E+00  0.00000000E+00  0.00000000E+00
  0.00000000E+00  0.00000000E+00  0.00000000E+00
  0.00000000E+00  0.00000000E+00  0.00000000E+00
  0.00000000E+00  0.00000000E+00  0.00000000E+00
  0.00000000E+00  0.00000000E+00  0.00000000E+00
  0.00000000E+00  0.00000000E+00  0.00000000E+00
  0.00000000E+00  0.00000000E+00  0.00000000E+00
  0.00000000E+00  0.00000000E+00  0.00000000E+00
  0.00000000E+00  0.00000000E+00  0.00000000E+00
  0.00000000E+00  0.00000000E+00  0.00000000E+00
  0.00000000E+00  0.00000000E+00  0.00000000E+00
  0.00000000E+00  0.00000000E+00  0.00000000E+00
  0.00000000E+00  0.00000000E+00  0.00000000E+00
  0.00000000E+00  0.00000000E+00  0.00000000E+00
  0.00000000E+00  0.00000000E+00  0.00000000E+00
  0.00000000E+00  0.00000000E+00  0.00000000E+00
