Na12  La4  I24                          
   1.4999999999999998     
     8.3149695774441081    0.0000000000000000    0.0000000000000005
     0.0000000000000013    8.3149695774441081    0.0000000000000005
    -0.0000000000000000    0.0000000000000000    8.3149695774441081
  Na              La              I             
    12     4    24
Direct
  0.2500000000000000  0.7500000000000000  0.7500000000000000
  0.2500000000000000  0.2500000000000000  0.7500000000000000
  0.5000000000000000  0.0000000000000000  0.0000000000000000
  0.2500000000000000  0.2500000000000000  0.2500000000000000
  0.2500000000000000  0.7500000000000000  0.2500000000000000
  0.5000000000000000  0.5000000000000000  0.5000000000000000
  0.7500000000000000  0.7500000000000000  0.2500000000000000
  0.7500000000000000  0.2500000000000000  0.2500000000000000
  0.0000000000000000  0.0000000000000000  0.5000000000000000
  0.7500000000000000  0.2500000000000000  0.7500000000000000
  0.7500000000000000  0.7500000000000000  0.7500000000000000
  0.0000000000000000  0.5000000000000000  0.0000000000000000
  0.0000000000000000  0.0000000000000000  0.0000000000000000
  0.0000000000000000  0.5000000000000000  0.5000000000000000
  0.5000000000000000  0.0000000000000000  0.5000000000000000
  0.5000000000000000  0.5000000000000000  0.0000000000000000
  0.5000000000000000  0.0000000000000000  0.7511980919505703
  0.7488019080494297  0.0000000000000000  0.0000000000000000
  0.0000000000000000  0.0000000000000000  0.7488019080494297
  0.5000000000000000  0.7511980919505703  0.0000000000000000
  0.0000000000000000  0.2488019080494297  0.5000000000000000
  0.2511980919505703  0.0000000000000000  0.0000000000000000
  0.5000000000000000  0.5000000000000000  0.2511980919505703
  0.7488019080494297  0.5000000000000000  0.5000000000000000
  0.0000000000000000  0.5000000000000000  0.2488019080494297
  0.5000000000000000  0.2511980919505703  0.5000000000000000
  0.0000000000000000  0.7488019080494297  0.0000000000000000
  0.2511980919505703  0.5000000000000000  0.5000000000000000
  0.0000000000000000  0.0000000000000000  0.2511980919505703
  0.2488019080494297  0.0000000000000000  0.5000000000000000
  0.5000000000000000  0.0000000000000000  0.2488019080494297
  0.0000000000000000  0.7511980919505703  0.5000000000000000
  0.5000000000000000  0.2488019080494297  0.0000000000000000
  0.7511980919505703  0.0000000000000000  0.5000000000000000
  0.0000000000000000  0.5000000000000000  0.7511980919505703
  0.2488019080494297  0.5000000000000000  0.0000000000000000
  0.5000000000000000  0.5000000000000000  0.7488019080494297
  0.0000000000000000  0.2511980919505703  0.0000000000000000
  0.5000000000000000  0.7488019080494297  0.5000000000000000
  0.7511980919505703  0.5000000000000000  0.0000000000000000

  0.00000000E+00  0.00000000E+00  0.00000000E+00
  0.00000000E+00  0.00000000E+00  0.00000000E+00
  0.00000000E+00  0.00000000E+00  0.00000000E+00
  0.00000000E+00  0.00000000E+00  0.00000000E+00
  0.00000000E+00  0.00000000E+00  0.00000000E+00
  0.00000000E+00  0.00000000E+00  0.00000000E+00
  0.00000000E+00  0.00000000E+00  0.00000000E+00
  0.00000000E+00  0.00000000E+00  0.00000000E+00
  0.00000000E+00  0.00000000E+00  0.00000000E+00
  0.00000000E+00  0.00000000E+00  0.00000000E+00
  0.00000000E+00  0.00000000E+00  0.00000000E+00
  0.00000000E+00  0.00000000E+00  0.00000000E+00
  0.00000000E+00  0.00000000E+00  0.00000000E+00
  0.00000000E+00  0.00000000E+00  0.00000000E+00
  0.00000000E+00  0.00000000E+00  0.00000000E+00
  0.00000000E+00  0.00000000E+00  0.00000000E+00
  0.00000000E+00  0.00000000E+00  0.00000000E+00
  0.00000000E+00  0.00000000E+00  0.00000000E+00
  0.00000000E+00  0.00000000E+00  0.00000000E+00
  0.00000000E+00  0.00000000E+00  0.00000000E+00
  0.00000000E+00  0.00000000E+00  0.00000000E+00
  0.00000000E+00  0.00000000E+00  0.00000000E+00
  0.00000000E+00  0.00000000E+00  0.00000000E+00
  0.00000000E+00  0.00000000E+00  0.00000000E+00
  0.00000000E+00  0.00000000E+00  0.00000000E+00
  0.00000000E+00  0.00000000E+00  0.00000000E+00
  0.00000000E+00  0.00000000E+00  0.00000000E+00
  0.00000000E+00  0.00000000E+00  0.00000000E+00
  0.00000000E+00  0.00000000E+00  0.00000000E+00
  0.00000000E+00  0.00000000E+00  0.00000000E+00
  0.00000000E+00  0.00000000E+00  0.00000000E+00
  0.00000000E+00  0.00000000E+00  0.00000000E+00
  0.00000000E+00  0.00000000E+00  0.00000000E+00
  0.00000000E+00  0.00000000E+00  0.00000000E+00
  0.00000000E+00  0.00000000E+00  0.00000000E+00
  0.00000000E+00  0.00000000E+00  0.00000000E+00
  0.00000000E+00  0.00000000E+00  0.00000000E+00
  0.00000000E+00  0.00000000E+00  0.00000000E+00
  0.00000000E+00  0.00000000E+00  0.00000000E+00
  0.00000000E+00  0.00000000E+00  0.00000000E+00
