Na3  La3  I12                           
   1.1499999999999999     
    15.6752856787359320    0.4044583045829298   -0.3474654541727399
    -3.6870187364485631    6.2992454947338263    1.0574527616312035
    -0.0520282592719969    0.6672252652308478    5.5099923196989176
  Na              La              I             
     3     3    12
Direct
  0.9801633936726191  0.0379126601072102  0.2420137720496527
  0.5215750353116135  0.9476484293357998  0.7670710485037375
  0.2059792753252907  0.7180453710887775  0.3683692351707037
  0.6610074864455484  0.6643151979118471  0.4774228508579696
  0.2872880666026632  0.2593987085190292  0.6350761791407820
  0.8425063751525954  0.3451810126368784  0.5142918622876351
  0.2886751800657947  0.2445318705759263  0.1406178883729297
  0.6558507102684814  0.0450789271409349  0.3717400069873733
  0.2220146929449527  0.8306291080377122  0.8252579756893752
  0.8434780693830604  0.9566019480514854  0.6224943102468217
  0.9024475808479764  0.3187538675025650  0.0127883777955162
  0.4740564455681096  0.2884930756690025  0.5988595640595875
  0.0235292427340497  0.7037247358524752  0.3926367970434157
  0.5949417099718204  0.6716334047614652  0.9854438493112596
  0.3841862818510151  0.7015616450735251  0.4797256508327479
  0.8022861544571924  0.6515688780284066  0.2027996288145815
  0.1147995578725443  0.2656177169362124  0.5748333978894919
  0.6952147115246632  0.3493034427707187  0.7885576049464191

  0.00000000E+00  0.00000000E+00  0.00000000E+00
  0.00000000E+00  0.00000000E+00  0.00000000E+00
  0.00000000E+00  0.00000000E+00  0.00000000E+00
  0.00000000E+00  0.00000000E+00  0.00000000E+00
  0.00000000E+00  0.00000000E+00  0.00000000E+00
  0.00000000E+00  0.00000000E+00  0.00000000E+00
  0.00000000E+00  0.00000000E+00  0.00000000E+00
  0.00000000E+00  0.00000000E+00  0.00000000E+00
  0.00000000E+00  0.00000000E+00  0.00000000E+00
  0.00000000E+00  0.00000000E+00  0.00000000E+00
  0.00000000E+00  0.00000000E+00  0.00000000E+00
  0.00000000E+00  0.00000000E+00  0.00000000E+00
  0.00000000E+00  0.00000000E+00  0.00000000E+00
  0.00000000E+00  0.00000000E+00  0.00000000E+00
  0.00000000E+00  0.00000000E+00  0.00000000E+00
  0.00000000E+00  0.00000000E+00  0.00000000E+00
  0.00000000E+00  0.00000000E+00  0.00000000E+00
  0.00000000E+00  0.00000000E+00  0.00000000E+00
