Na9  La3  I18                           
   1.2500000000000000     
    10.9889891038190051   -0.0001914428928951   -0.0000925144550694
    -5.4946603491614736    9.5166461674656855    0.0000933736142038
    -0.0000546370364422    0.0000320992788573    6.1209670255468085
  Na              La              I             
     9     3    18
Direct
  0.3358697519766309  0.3358724345526056  0.9999998651556581
  0.6641068378620432  0.9999792366630160  0.0000002390412277
  0.9999823905931464  0.6641067793715436  0.0000028857481311
  0.6579744394434996  0.6579771331443780  0.0000021413752265
  0.3420313441180838  0.0000529720475484  0.9999854857856647
  0.0000424399400174  0.3420167868386059  0.0000090010070863
  0.6758023744523030  0.0000120578672949  0.5000019811090226
  0.0000108125005340  0.6758020660165940  0.4999995204452929
  0.3242124038049141  0.3242141855647347  0.4999986137462713
  0.9999616697209674  0.9999584771232293  0.9999966482931413
  0.3333331915223496  0.6666863649726835  0.5022215725302033
  0.6666859088775396  0.3333372240450956  0.4977806323558909
  0.1130176774939429  0.8906027559627034  0.7677212794491481
  0.1093810704279434  0.2223968274517318  0.7676860972849013
  0.7775678231064944  0.8869466382313860  0.7676902391768223
  0.8906013489540001  0.1130041147712291  0.2322825467221961
  0.2224028289208917  0.1093833826965209  0.2323022255185023
  0.8869455235310468  0.7775661653824670  0.2323068688403183
  0.2206897523979592  0.7736621884253481  0.2623106709377225
  0.2263722414939764  0.4470496146576721  0.2623123407820458
  0.5529542824838387  0.7793225645949562  0.2623403531628909
  0.7736558598105319  0.2206881993050942  0.7376941615022972
  0.4470484394646519  0.2263760610307060  0.7376866238143975
  0.7793235042806401  0.5529593512767761  0.7376635610389002
  0.4368357474022275  0.5507455845831828  0.7435594150021316
  0.4492512326072671  0.8861181861446141  0.7435403716716635
  0.1139048061442551  0.5631673130477779  0.7435575245727861
  0.5507438852566864  0.4368381318529018  0.2564423059161740
  0.8861159361417208  0.4492480481263286  0.2564571526583848
  0.5631744752699106  0.1139091542513100  0.2564476753559006

  0.00000000E+00  0.00000000E+00  0.00000000E+00
  0.00000000E+00  0.00000000E+00  0.00000000E+00
  0.00000000E+00  0.00000000E+00  0.00000000E+00
  0.00000000E+00  0.00000000E+00  0.00000000E+00
  0.00000000E+00  0.00000000E+00  0.00000000E+00
  0.00000000E+00  0.00000000E+00  0.00000000E+00
  0.00000000E+00  0.00000000E+00  0.00000000E+00
  0.00000000E+00  0.00000000E+00  0.00000000E+00
  0.00000000E+00  0.00000000E+00  0.00000000E+00
  0.00000000E+00  0.00000000E+00  0.00000000E+00
  0.00000000E+00  0.00000000E+00  0.00000000E+00
  0.00000000E+00  0.00000000E+00  0.00000000E+00
  0.00000000E+00  0.00000000E+00  0.00000000E+00
  0.00000000E+00  0.00000000E+00  0.00000000E+00
  0.00000000E+00  0.00000000E+00  0.00000000E+00
  0.00000000E+00  0.00000000E+00  0.00000000E+00
  0.00000000E+00  0.00000000E+00  0.00000000E+00
  0.00000000E+00  0.00000000E+00  0.00000000E+00
  0.00000000E+00  0.00000000E+00  0.00000000E+00
  0.00000000E+00  0.00000000E+00  0.00000000E+00
  0.00000000E+00  0.00000000E+00  0.00000000E+00
  0.00000000E+00  0.00000000E+00  0.00000000E+00
  0.00000000E+00  0.00000000E+00  0.00000000E+00
  0.00000000E+00  0.00000000E+00  0.00000000E+00
  0.00000000E+00  0.00000000E+00  0.00000000E+00
  0.00000000E+00  0.00000000E+00  0.00000000E+00
  0.00000000E+00  0.00000000E+00  0.00000000E+00
  0.00000000E+00  0.00000000E+00  0.00000000E+00
  0.00000000E+00  0.00000000E+00  0.00000000E+00
  0.00000000E+00  0.00000000E+00  0.00000000E+00
