Na12  La4  I24                          
   1.2500000000000000     
     7.0059627873382997    0.0000000000000000    0.0000000000000000
     0.0000000000000000    9.5413660569336365    0.0000000000000000
     0.0000000000000000    0.0000000000000000   13.8531493426950814
  Na              La              I             
    12     4    24
Direct
  0.4112115922125668  0.0524305287884275  0.8748188486584141
  0.8039132594743208  0.6896166250607934  0.9502313766801791
  0.0160232438792889  0.1150814717966426  0.7240327451191320
  0.0160232438792889  0.3849185342033579  0.2240327241191267
  0.8039132594743208  0.8103833269392098  0.4502314186801755
  0.4112115922125668  0.4475695012115750  0.3748188066584177
  0.3039132594743208  0.1896166610607963  0.5497685813198245
  0.9112116452125605  0.5524304987884250  0.6251811513415859
  0.5160232688792874  0.6150814657966421  0.7759672548808680
  0.5160232688792874  0.8849185822033547  0.2759672758808662
  0.9112116452125605  0.9475695012115750  0.1251811823415849
  0.3039132594743208  0.3103833269392098  0.0497685703198201
  0.8232705862751857  0.1926825064189117  0.4428196581222394
  0.8232705862751857  0.3073174935810883  0.9428196581222394
  0.3232705282751880  0.6926824824189097  0.0571803238777591
  0.3232705282751880  0.8073174695810863  0.5571803418777606
  0.0748827863163015  0.6446287470799348  0.4725125403094310
  0.4988918196594838  0.6988620675720654  0.4046036706185276
  0.2063137042961927  0.6653594284134172  0.6987346770031664
  0.8323051916363085  0.5056549388609000  0.8083154679214388
  0.6536935151158545  0.7530509683087416  0.1288475212556932
  0.0211342851344938  0.5182251967900413  0.0283430026573157
  0.0211342851344938  0.9817748032099587  0.5283429706573060
  0.6536935151158545  0.7469490316912584  0.6288475112556924
  0.8323051916363085  0.9943450611391000  0.3083154259214353
  0.2063137042961927  0.8346405715865828  0.1987346980031646
  0.4988918196594838  0.8011379794279350  0.9046036286185242
  0.0748827863163015  0.8553712529200652  0.9725125403094310
  0.9988918786594780  0.1988620555720644  0.0953963503814776
  0.5748827573162956  0.1446287590799358  0.0274874436905677
  0.7063137042961927  0.1653594764134212  0.8012653229968336
  0.3323051336363037  0.0056549748608958  0.6916845320785612
  0.5211342851344938  0.0182251877900370  0.4716569873426835
  0.1536935671158588  0.2530509923087436  0.3711524887443076
  0.1536935671158588  0.2469490316912513  0.8711524887443076
  0.5211342851344938  0.4817748032099658  0.9716570293426940
  0.3323051336363037  0.4943450131391032  0.1916845530785594
  0.7063137042961927  0.3346405235865788  0.3012653019968354
  0.5748827573162956  0.3553712529200652  0.5274874596905690
  0.9988918786594780  0.3011379554279330  0.5953963293814724

  0.00000000E+00  0.00000000E+00  0.00000000E+00
  0.00000000E+00  0.00000000E+00  0.00000000E+00
  0.00000000E+00  0.00000000E+00  0.00000000E+00
  0.00000000E+00  0.00000000E+00  0.00000000E+00
  0.00000000E+00  0.00000000E+00  0.00000000E+00
  0.00000000E+00  0.00000000E+00  0.00000000E+00
  0.00000000E+00  0.00000000E+00  0.00000000E+00
  0.00000000E+00  0.00000000E+00  0.00000000E+00
  0.00000000E+00  0.00000000E+00  0.00000000E+00
  0.00000000E+00  0.00000000E+00  0.00000000E+00
  0.00000000E+00  0.00000000E+00  0.00000000E+00
  0.00000000E+00  0.00000000E+00  0.00000000E+00
  0.00000000E+00  0.00000000E+00  0.00000000E+00
  0.00000000E+00  0.00000000E+00  0.00000000E+00
  0.00000000E+00  0.00000000E+00  0.00000000E+00
  0.00000000E+00  0.00000000E+00  0.00000000E+00
  0.00000000E+00  0.00000000E+00  0.00000000E+00
  0.00000000E+00  0.00000000E+00  0.00000000E+00
  0.00000000E+00  0.00000000E+00  0.00000000E+00
  0.00000000E+00  0.00000000E+00  0.00000000E+00
  0.00000000E+00  0.00000000E+00  0.00000000E+00
  0.00000000E+00  0.00000000E+00  0.00000000E+00
  0.00000000E+00  0.00000000E+00  0.00000000E+00
  0.00000000E+00  0.00000000E+00  0.00000000E+00
  0.00000000E+00  0.00000000E+00  0.00000000E+00
  0.00000000E+00  0.00000000E+00  0.00000000E+00
  0.00000000E+00  0.00000000E+00  0.00000000E+00
  0.00000000E+00  0.00000000E+00  0.00000000E+00
  0.00000000E+00  0.00000000E+00  0.00000000E+00
  0.00000000E+00  0.00000000E+00  0.00000000E+00
  0.00000000E+00  0.00000000E+00  0.00000000E+00
  0.00000000E+00  0.00000000E+00  0.00000000E+00
  0.00000000E+00  0.00000000E+00  0.00000000E+00
  0.00000000E+00  0.00000000E+00  0.00000000E+00
  0.00000000E+00  0.00000000E+00  0.00000000E+00
  0.00000000E+00  0.00000000E+00  0.00000000E+00
  0.00000000E+00  0.00000000E+00  0.00000000E+00
  0.00000000E+00  0.00000000E+00  0.00000000E+00
  0.00000000E+00  0.00000000E+00  0.00000000E+00
  0.00000000E+00  0.00000000E+00  0.00000000E+00
