Na4  La4  I16                           
   1.1499999999999999     
    11.9539006673831452    0.0000000000000000    0.1697033726483473
     0.0000000000000000    7.8451121001718072    0.0000000000000000
    -0.2681259464066245    0.0000000000000000    8.1744216356859578
  La              I               Na            
     4    16     4
Direct
  0.5000000000000000  0.4944490178989298  0.2500000000000000
  0.0000000000000000  0.9944490178989298  0.2500000000000000
  0.0000000000000000  0.0055509821010702  0.7500000000000000
  0.5000000000000000  0.5055509821010702  0.7500000000000000
  0.5080651453032061  0.2545829035301850  0.9952696588640890
  0.0080651453032061  0.7545829035301850  0.9952696588640890
  0.7268879271753974  0.4912129146236666  0.2574871858822902
  0.2268879271753974  0.9912129146236666  0.2574871858822902
  0.2731120728246026  0.4912129146236666  0.2425128141177098
  0.7731120728246026  0.9912129146236666  0.2425128141177098
  0.4919348546967939  0.2545829035301850  0.5047303411359110
  0.9919348546967939  0.7545829035301850  0.5047303411359110
  0.0080651453032061  0.2454170964698150  0.4952696588640890
  0.5080651453032061  0.7454170964698150  0.4952696588640890
  0.2268879271753974  0.0087870853763334  0.7574871858822902
  0.7268879271753974  0.5087870853763334  0.7574871858822902
  0.7731120728246026  0.0087870853763334  0.7425128141177098
  0.2731120728246026  0.5087870853763334  0.7425128141177098
  0.9919348546967939  0.2454170964698150  0.0047303411359110
  0.4919348546967939  0.7454170964698150  0.0047303411359110
  0.7500000000000000  0.2500000000000000  0.0000000000000000
  0.2500000000000000  0.7500000000000000  0.0000000000000000
  0.2500000000000000  0.2500000000000000  0.5000000000000000
  0.7500000000000000  0.7500000000000000  0.5000000000000000

  0.00000000E+00  0.00000000E+00  0.00000000E+00
  0.00000000E+00  0.00000000E+00  0.00000000E+00
  0.00000000E+00  0.00000000E+00  0.00000000E+00
  0.00000000E+00  0.00000000E+00  0.00000000E+00
  0.00000000E+00  0.00000000E+00  0.00000000E+00
  0.00000000E+00  0.00000000E+00  0.00000000E+00
  0.00000000E+00  0.00000000E+00  0.00000000E+00
  0.00000000E+00  0.00000000E+00  0.00000000E+00
  0.00000000E+00  0.00000000E+00  0.00000000E+00
  0.00000000E+00  0.00000000E+00  0.00000000E+00
  0.00000000E+00  0.00000000E+00  0.00000000E+00
  0.00000000E+00  0.00000000E+00  0.00000000E+00
  0.00000000E+00  0.00000000E+00  0.00000000E+00
  0.00000000E+00  0.00000000E+00  0.00000000E+00
  0.00000000E+00  0.00000000E+00  0.00000000E+00
  0.00000000E+00  0.00000000E+00  0.00000000E+00
  0.00000000E+00  0.00000000E+00  0.00000000E+00
  0.00000000E+00  0.00000000E+00  0.00000000E+00
  0.00000000E+00  0.00000000E+00  0.00000000E+00
  0.00000000E+00  0.00000000E+00  0.00000000E+00
  0.00000000E+00  0.00000000E+00  0.00000000E+00
  0.00000000E+00  0.00000000E+00  0.00000000E+00
  0.00000000E+00  0.00000000E+00  0.00000000E+00
  0.00000000E+00  0.00000000E+00  0.00000000E+00
