Na3  La1  I6                            
   1.6000000000000001     
     2.4706585480683709   -4.2793061334087694    0.0000000000000000
     2.4706585480683709    4.2793061334087694    0.0000000000000000
     0.0000000000000000    0.0000000000000000    4.8197361473908584
  Na              La              I             
     3     1     6
Direct
  0.3333333333333357  0.6666666666666643  0.5000000000000000
  0.0000000000000000  0.0000000000000000  0.5000000000000000
  0.6666666666666643  0.3333333333333357  0.5000000000000000
  0.0000000000000000  0.0000000000000000  0.0000000000000000
  0.0000000000000000  0.6774739394764850  0.7500839337694600
  0.0000000000000000  0.3225260605235150  0.2499160662305400
  0.3225260605235150  0.3225260605235150  0.7500839337694600
  0.3225260605235150  0.0000000000000000  0.2499160662305400
  0.6774739394764850  0.6774739394764850  0.2499160662305400
  0.6774739394764850  0.0000000000000000  0.7500839337694600

  0.00000000E+00  0.00000000E+00  0.00000000E+00
  0.00000000E+00  0.00000000E+00  0.00000000E+00
  0.00000000E+00  0.00000000E+00  0.00000000E+00
  0.00000000E+00  0.00000000E+00  0.00000000E+00
  0.00000000E+00  0.00000000E+00  0.00000000E+00
  0.00000000E+00  0.00000000E+00  0.00000000E+00
  0.00000000E+00  0.00000000E+00  0.00000000E+00
  0.00000000E+00  0.00000000E+00  0.00000000E+00
  0.00000000E+00  0.00000000E+00  0.00000000E+00
  0.00000000E+00  0.00000000E+00  0.00000000E+00
