Na1  La2  I6                            
   1.2000000000000000     
     6.3947073661141332   -0.0044439734199838    0.0137039087353144
     0.0126032091778301    6.7833225326047160   -0.0174568851757893
     6.3413491862609490    3.4129253533819437    5.8764380482774081
  Na              La              I             
     1     2     6
Direct
  0.3897292727891233  0.7171248997812880  0.9810241352668237
  0.5516766788362777  0.0495373708927131  0.3141095340153635
  0.0512807661870637  0.0492053192131755  0.3140922194023562
  0.1107316506825387  0.0341131068416054  0.0037112706391306
  0.4794948394747556  0.7378595100404631  0.6396725145772483
  0.8178562702520125  0.3751543658693764  0.2985889194652600
  0.3101929610492317  0.7355520763121915  0.3049298442154941
  0.6119487549353295  0.3724986094065178  0.9999184405188138
  0.9790758147936613  0.0388037456426878  0.6375150508995046

  0.00000000E+00  0.00000000E+00  0.00000000E+00
  0.00000000E+00  0.00000000E+00  0.00000000E+00
  0.00000000E+00  0.00000000E+00  0.00000000E+00
  0.00000000E+00  0.00000000E+00  0.00000000E+00
  0.00000000E+00  0.00000000E+00  0.00000000E+00
  0.00000000E+00  0.00000000E+00  0.00000000E+00
  0.00000000E+00  0.00000000E+00  0.00000000E+00
  0.00000000E+00  0.00000000E+00  0.00000000E+00
  0.00000000E+00  0.00000000E+00  0.00000000E+00
