Na10  La6  I28                          
   1.6499999999999999     
     0.0000000000000000    7.1711714844323042   -0.8012398636257594
     6.9070820335455245    0.0000000000000000    0.0000000000000000
     0.0000000000000000   -5.9294218409748511   -9.0701808815104474
  Na              La              I             
    10     6    28
Direct
  0.6670305919872135  0.8506132596095384  0.2646755722710594
  0.0041037746735242  0.8473073281402108  0.7614952198734031
  0.5000000000000000  0.5000000000000000  0.0000000000000000
  0.3329694080127865  0.1493867403904616  0.7353244277289477
  0.3329694080127865  0.3506132596095384  0.2353244277289406
  0.9958962253264758  0.3473073281402108  0.7385047801265969
  0.6670305919872135  0.6493867403904616  0.7646755722710523
  0.9958962253264758  0.1526926718597892  0.2385047801266040
  0.0041037746735242  0.6526926718597892  0.2614952198734031
  0.5000000000000000  0.0000000000000000  0.5000000000000000
  0.5000000000000000  0.5000000000000000  0.5000000000000000
  0.0000000000000000  0.5000000000000000  0.5000000000000000
  0.5000000000000000  0.0000000000000000  0.0000000000000000
  0.0000000000000000  0.0000000000000000  0.0000000000000000
  0.0000000000000000  0.5000000000000000  0.0000000000000000
  0.0000000000000000  0.0000000000000000  0.5000000000000000
  0.9820585464064777  0.2510854370519269  0.4101543064805355
  0.4428671073552835  0.9013555434977860  0.8242961906672264
  0.9711804275253115  0.5872104228261890  0.8214714328565407
  0.0288195724746885  0.4127895771738110  0.1785285671434593
  0.7861716704116049  0.0906348901503620  0.0475608862005430
  0.4428671073552835  0.5986444565022140  0.3242961906672264
  0.9820585464064777  0.2489145629480731  0.9101543064805355
  0.5999323760207602  0.7495906235745053  0.5839695425716300
  0.2927613476103090  0.0146878631596579  0.5683985351538468
  0.1981573222156143  0.4151897833024165  0.6769590402660342
  0.0179414535935223  0.7510854370519269  0.0898456935194645
  0.0179414535935223  0.7489145629480731  0.5898456935194645
  0.8018426777843786  0.9151897833024165  0.8230409597339658
  0.0288195724746885  0.0872104228261890  0.6785285671434593
  0.7072386523896910  0.5146878631596579  0.9316014648461532
  0.2927613476103090  0.4853121368403421  0.0683985351538468
  0.7861716704116049  0.4093651098496451  0.5475608862005430
  0.5571328926447165  0.0986444565022140  0.1757038093327736
  0.2138283295883951  0.9093651098496380  0.9524391137994570
  0.2138283295883951  0.5906348901503620  0.4524391137994570
  0.4000676239792398  0.2495906235745053  0.9160304574283700
  0.4000676239792398  0.2504093764254947  0.4160304574283700
  0.8018426777843786  0.5848102166975835  0.3230409597339730
  0.5571328926447165  0.4013555434977860  0.6757038093327736
  0.9711804275253115  0.9127895771738110  0.3214714328565407
  0.7072386523896910  0.9853121368403421  0.4316014648461532
  0.5999323760207602  0.7504093764254947  0.0839695425716300
  0.1981573222156143  0.0848102166975835  0.1769590402660270

  0.00000000E+00  0.00000000E+00  0.00000000E+00
  0.00000000E+00  0.00000000E+00  0.00000000E+00
  0.00000000E+00  0.00000000E+00  0.00000000E+00
  0.00000000E+00  0.00000000E+00  0.00000000E+00
  0.00000000E+00  0.00000000E+00  0.00000000E+00
  0.00000000E+00  0.00000000E+00  0.00000000E+00
  0.00000000E+00  0.00000000E+00  0.00000000E+00
  0.00000000E+00  0.00000000E+00  0.00000000E+00
  0.00000000E+00  0.00000000E+00  0.00000000E+00
  0.00000000E+00  0.00000000E+00  0.00000000E+00
  0.00000000E+00  0.00000000E+00  0.00000000E+00
  0.00000000E+00  0.00000000E+00  0.00000000E+00
  0.00000000E+00  0.00000000E+00  0.00000000E+00
  0.00000000E+00  0.00000000E+00  0.00000000E+00
  0.00000000E+00  0.00000000E+00  0.00000000E+00
  0.00000000E+00  0.00000000E+00  0.00000000E+00
  0.00000000E+00  0.00000000E+00  0.00000000E+00
  0.00000000E+00  0.00000000E+00  0.00000000E+00
  0.00000000E+00  0.00000000E+00  0.00000000E+00
  0.00000000E+00  0.00000000E+00  0.00000000E+00
  0.00000000E+00  0.00000000E+00  0.00000000E+00
  0.00000000E+00  0.00000000E+00  0.00000000E+00
  0.00000000E+00  0.00000000E+00  0.00000000E+00
  0.00000000E+00  0.00000000E+00  0.00000000E+00
  0.00000000E+00  0.00000000E+00  0.00000000E+00
  0.00000000E+00  0.00000000E+00  0.00000000E+00
  0.00000000E+00  0.00000000E+00  0.00000000E+00
  0.00000000E+00  0.00000000E+00  0.00000000E+00
  0.00000000E+00  0.00000000E+00  0.00000000E+00
  0.00000000E+00  0.00000000E+00  0.00000000E+00
  0.00000000E+00  0.00000000E+00  0.00000000E+00
  0.00000000E+00  0.00000000E+00  0.00000000E+00
  0.00000000E+00  0.00000000E+00  0.00000000E+00
  0.00000000E+00  0.00000000E+00  0.00000000E+00
  0.00000000E+00  0.00000000E+00  0.00000000E+00
  0.00000000E+00  0.00000000E+00  0.00000000E+00
  0.00000000E+00  0.00000000E+00  0.00000000E+00
  0.00000000E+00  0.00000000E+00  0.00000000E+00
  0.00000000E+00  0.00000000E+00  0.00000000E+00
  0.00000000E+00  0.00000000E+00  0.00000000E+00
  0.00000000E+00  0.00000000E+00  0.00000000E+00
  0.00000000E+00  0.00000000E+00  0.00000000E+00
  0.00000000E+00  0.00000000E+00  0.00000000E+00
  0.00000000E+00  0.00000000E+00  0.00000000E+00
