Na4  La8  I28                           
   1.3499999999999999     
     7.4922442156965872   -0.0000000000000001    0.0000000000000004
     0.0000000000000012    9.5320260491438908    0.0000000000000006
    -0.0000000000000002   -0.0000000000000001   11.9676310832666104
  Na              La              I             
     4     8    28
Direct
  0.2983624786491106  0.8996361876554033  0.0948848248182372
  0.7983624786491106  0.3996361876554033  0.4051151751817628
  0.7016375213508894  0.3996361876554033  0.9051151751817628
  0.2016375213508894  0.8996361876554033  0.5948848248182372
  0.2140687315238949  0.2759752824703412  0.3273051131545159
  0.7140687315238807  0.7759752824703412  0.1726948868454841
  0.5204584593759165  0.4702436824550844  0.1365423119164504
  0.0204584593759165  0.9702436824550773  0.3634576880835496
  0.9795415406240835  0.4702436824550844  0.6365423119164575
  0.4795415406240835  0.9702436824550773  0.8634576880835425
  0.2859312684761051  0.2759752824703412  0.8273051131545159
  0.7859312684761193  0.7759752824703412  0.6726948868454841
  0.2807418521596574  0.0529864623614529  0.2526321842979371
  0.5148687404452374  0.3451799312250756  0.3183135993005166
  0.1999640691554632  0.7947785463239825  0.4236268397484295
  0.4851312595547626  0.8451799312250756  0.6816864006994763
  0.5829137576389130  0.1984024543378524  0.7967612637911827
  0.2192581478403426  0.0529864623614529  0.7526321842979371
  0.9851312595547626  0.3451799312250756  0.8183135993005237
  0.3000359308445368  0.7947785463239825  0.9236268397484295
  0.8050230446549023  0.6283803171567399  0.5152613928537448
  0.6096533954445675  0.9586662381765976  0.0579221581693474
  0.6999640691554632  0.2947785463239754  0.0763731602515776
  0.1949769553450977  0.1283803171567399  0.4847386071462552
  0.0829137576389130  0.6984024543378453  0.7032387362088173
  0.3050230446549023  0.1283803171567399  0.9847386071462552
  0.0148687404452374  0.8451799312250756  0.1816864006994834
  0.7192581478403426  0.5529864623614458  0.7473678157020629
  0.4170862423610870  0.6984024543378453  0.2032387362088173
  0.1096533954445675  0.4586662381765976  0.4420778418306526
  0.6949769553450977  0.6283803171567399  0.0152613928537448
  0.2897806922758264  0.4076508978374775  0.6615040742675902
  0.7102193077241736  0.9076508978374704  0.3384959257324098
  0.3903466045554325  0.4586662381765976  0.9420778418306526
  0.8000359308445368  0.2947785463239754  0.5763731602515705
  0.8903466045554325  0.9586662381765976  0.5579221581693474
  0.2102193077241736  0.4076508978374775  0.1615040742675902
  0.7897806922758264  0.9076508978374704  0.8384959257324098
  0.9170862423610870  0.1984024543378524  0.2967612637911756
  0.7807418521596574  0.5529864623614458  0.2473678157020629

  0.00000000E+00  0.00000000E+00  0.00000000E+00
  0.00000000E+00  0.00000000E+00  0.00000000E+00
  0.00000000E+00  0.00000000E+00  0.00000000E+00
  0.00000000E+00  0.00000000E+00  0.00000000E+00
  0.00000000E+00  0.00000000E+00  0.00000000E+00
  0.00000000E+00  0.00000000E+00  0.00000000E+00
  0.00000000E+00  0.00000000E+00  0.00000000E+00
  0.00000000E+00  0.00000000E+00  0.00000000E+00
  0.00000000E+00  0.00000000E+00  0.00000000E+00
  0.00000000E+00  0.00000000E+00  0.00000000E+00
  0.00000000E+00  0.00000000E+00  0.00000000E+00
  0.00000000E+00  0.00000000E+00  0.00000000E+00
  0.00000000E+00  0.00000000E+00  0.00000000E+00
  0.00000000E+00  0.00000000E+00  0.00000000E+00
  0.00000000E+00  0.00000000E+00  0.00000000E+00
  0.00000000E+00  0.00000000E+00  0.00000000E+00
  0.00000000E+00  0.00000000E+00  0.00000000E+00
  0.00000000E+00  0.00000000E+00  0.00000000E+00
  0.00000000E+00  0.00000000E+00  0.00000000E+00
  0.00000000E+00  0.00000000E+00  0.00000000E+00
  0.00000000E+00  0.00000000E+00  0.00000000E+00
  0.00000000E+00  0.00000000E+00  0.00000000E+00
  0.00000000E+00  0.00000000E+00  0.00000000E+00
  0.00000000E+00  0.00000000E+00  0.00000000E+00
  0.00000000E+00  0.00000000E+00  0.00000000E+00
  0.00000000E+00  0.00000000E+00  0.00000000E+00
  0.00000000E+00  0.00000000E+00  0.00000000E+00
  0.00000000E+00  0.00000000E+00  0.00000000E+00
  0.00000000E+00  0.00000000E+00  0.00000000E+00
  0.00000000E+00  0.00000000E+00  0.00000000E+00
  0.00000000E+00  0.00000000E+00  0.00000000E+00
  0.00000000E+00  0.00000000E+00  0.00000000E+00
  0.00000000E+00  0.00000000E+00  0.00000000E+00
  0.00000000E+00  0.00000000E+00  0.00000000E+00
  0.00000000E+00  0.00000000E+00  0.00000000E+00
  0.00000000E+00  0.00000000E+00  0.00000000E+00
  0.00000000E+00  0.00000000E+00  0.00000000E+00
  0.00000000E+00  0.00000000E+00  0.00000000E+00
  0.00000000E+00  0.00000000E+00  0.00000000E+00
  0.00000000E+00  0.00000000E+00  0.00000000E+00
