Na20  La12  I56                         
   1.4000000000000001     
     8.2182311438471292    0.0000000000000001    0.0000000000000005
     0.0000000000000025   14.2364971438496912    0.0000000000000009
    -0.0000000000000000    0.0000000000000001   12.8850011469220238
  Na              La              I             
    20    12    56
Direct
  0.8534614934656446  0.7112471120111508  0.3992809940234139
  0.1465385065343554  0.2112471120111508  0.6007190059765861
  0.6465385065343554  0.7112471120111508  0.8992809940234139
  0.3534614934656446  0.2112471120111508  0.1007190059765861
  0.7221908471371208  0.0604354895577472  0.2610688971160045
  0.2778091528628792  0.5604354895577472  0.7389311028839955
  0.7778091528628792  0.0604354895577472  0.7610688971160045
  0.2221908471371208  0.5604354895577472  0.2389311028839955
  0.8494236579855681  0.2771658145396643  0.1091137230115748
  0.1505763420144390  0.7771658145396643  0.8908862769884252
  0.6505763420144319  0.2771658145396643  0.6091137230115748
  0.3494236579855610  0.7771658145396643  0.3908862769884252
  0.6448186410139982  0.4235781852811584  0.2263740337598179
  0.3551813589860018  0.9235781852811584  0.7736259662401821
  0.8551813589860018  0.4235781852811584  0.7263740337598179
  0.1448186410139982  0.9235781852811584  0.2736259662401821
  0.0987971548862703  0.0503932254079729  0.0136730294211063
  0.9012028451137297  0.5503932254079729  0.9863269705788937
  0.4012028451137297  0.0503932254079729  0.5136730294211063
  0.5987971548862703  0.5503932254079729  0.4863269705788937
  0.4944588796664604  0.2502797010068747  0.3580594937356452
  0.5055411203335396  0.7502797010068747  0.6419405062643548
  0.0055411203335396  0.2502797010068747  0.8580594937356452
  0.9944588796664604  0.7502797010068747  0.1419405062643548
  0.9784129208756909  0.4924914642073333  0.4927859447407315
  0.0215870791243162  0.9924914642073333  0.5072140552592685
  0.5215870791243091  0.4924914642073333  0.9927859447407315
  0.4784129208756838  0.9924914642073333  0.0072140552592685
  0.9946277752194419  0.2527418975696136  0.3393994489439223
  0.0053722247805581  0.7527418975696136  0.6606005510560777
  0.5053722247805581  0.2527418975696136  0.8393994489439223
  0.4946277752194419  0.7527418975696136  0.1606005510560777
  0.4172274187060765  0.3416384449010579  0.9759977710340948
  0.5827725812939306  0.8416384449010579  0.0240022289659052
  0.0827725812939235  0.3416384449010579  0.4759977710340948
  0.9172274187060694  0.8416384449010579  0.5240022289659052
  0.5925439937686505  0.2574561330159284  0.1918826729543497
  0.4074560062313495  0.7574561330159284  0.8081173270456503
  0.9074560062313495  0.2574561330159284  0.6918826729543497
  0.0925439937686505  0.7574561330159284  0.3081173270456503
  0.0949166322925379  0.4738156371065756  0.6498823222311643
  0.9050833677074692  0.9738156371065756  0.3501176777688499
  0.4050833677074621  0.4738156371065756  0.1498823222311643
  0.5949166322925308  0.9738156371065756  0.8501176777688357
  0.2542546004699204  0.7332097917125466  0.0725677028092520
  0.7457453995300796  0.2332097917125466  0.9274322971907480
  0.2457453995300796  0.7332097917125466  0.5725677028092520
  0.7542546004699204  0.2332097917125466  0.4274322971907480
  0.4338648453947940  0.6529977724930376  0.2868211364089248
  0.5661351546052060  0.1529977724930447  0.7131788635910752
  0.0661351546052060  0.6529977724930376  0.7868211364089248
  0.9338648453947940  0.1529977724930447  0.2131788635910752
  0.7522100965861753  0.4276786072578744  0.0603514477552309
  0.2477899034138247  0.9276786072578815  0.9396485522447691
  0.7477899034138247  0.4276786072578744  0.5603514477552309
  0.2522100965861753  0.9276786072578815  0.4396485522447691
  0.1926916518875643  0.5469667860222032  0.4108836134140006
  0.8073083481124428  0.0469667860222032  0.5891163865859994
  0.3073083481124357  0.5469667860222032  0.9108836134140006
  0.6926916518875572  0.0469667860222032  0.0891163865859994
  0.4214456069795389  0.8775929503685731  0.2503298578110460
  0.5785543930204611  0.3775929503685802  0.7496701421889540
  0.0785543930204611  0.8775929503685731  0.7503298578110460
  0.9214456069795389  0.3775929503685802  0.2496701421889540
  0.7524513828599453  0.7647412463026768  0.2327472830626292
  0.2475486171400547  0.2647412463026768  0.7672527169373780
  0.7475486171400547  0.7647412463026768  0.7327472830626220
  0.2524513828599453  0.2647412463026768  0.2672527169373708
  0.5890961734353439  0.7323487914627194  0.4751818991244150
  0.4109038265646561  0.2323487914627194  0.5248181008755850
  0.9109038265646561  0.7323487914627194  0.9751818991244150
  0.0890961734353439  0.2323487914627194  0.0248181008755850
  0.6958151581165950  0.5533719435481999  0.8686391218766971
  0.3041848418834050  0.0533719435481999  0.1313608781233029
  0.8041848418834050  0.5533719435481999  0.3686391218766971
  0.1958151581165950  0.0533719435481999  0.6313608781233029
  0.4956121920076555  0.0903201360175387  0.3513926741022146
  0.5043878079923445  0.5903201360175387  0.6486073258977783
  0.0043878079923445  0.0903201360175387  0.8513926741022217
  0.9956121920076555  0.5903201360175387  0.1486073258977854
  0.0114465084604802  0.9055681472041641  0.1227303516099880
  0.9885534915395198  0.4055681472041641  0.8772696483900120
  0.4885534915395198  0.9055681472041641  0.6227303516099880
  0.5114465084604802  0.4055681472041641  0.3772696483900120
  0.8935471211417365  0.6342617230053804  0.5637794145785548
  0.1064528788582635  0.1342617230053804  0.4362205854214523
  0.6064528788582635  0.6342617230053804  0.0637794145785548
  0.3935471211417365  0.1342617230053804  0.9362205854214452

  0.00000000E+00  0.00000000E+00  0.00000000E+00
  0.00000000E+00  0.00000000E+00  0.00000000E+00
  0.00000000E+00  0.00000000E+00  0.00000000E+00
  0.00000000E+00  0.00000000E+00  0.00000000E+00
  0.00000000E+00  0.00000000E+00  0.00000000E+00
  0.00000000E+00  0.00000000E+00  0.00000000E+00
  0.00000000E+00  0.00000000E+00  0.00000000E+00
  0.00000000E+00  0.00000000E+00  0.00000000E+00
  0.00000000E+00  0.00000000E+00  0.00000000E+00
  0.00000000E+00  0.00000000E+00  0.00000000E+00
  0.00000000E+00  0.00000000E+00  0.00000000E+00
  0.00000000E+00  0.00000000E+00  0.00000000E+00
  0.00000000E+00  0.00000000E+00  0.00000000E+00
  0.00000000E+00  0.00000000E+00  0.00000000E+00
  0.00000000E+00  0.00000000E+00  0.00000000E+00
  0.00000000E+00  0.00000000E+00  0.00000000E+00
  0.00000000E+00  0.00000000E+00  0.00000000E+00
  0.00000000E+00  0.00000000E+00  0.00000000E+00
  0.00000000E+00  0.00000000E+00  0.00000000E+00
  0.00000000E+00  0.00000000E+00  0.00000000E+00
  0.00000000E+00  0.00000000E+00  0.00000000E+00
  0.00000000E+00  0.00000000E+00  0.00000000E+00
  0.00000000E+00  0.00000000E+00  0.00000000E+00
  0.00000000E+00  0.00000000E+00  0.00000000E+00
  0.00000000E+00  0.00000000E+00  0.00000000E+00
  0.00000000E+00  0.00000000E+00  0.00000000E+00
  0.00000000E+00  0.00000000E+00  0.00000000E+00
  0.00000000E+00  0.00000000E+00  0.00000000E+00
  0.00000000E+00  0.00000000E+00  0.00000000E+00
  0.00000000E+00  0.00000000E+00  0.00000000E+00
  0.00000000E+00  0.00000000E+00  0.00000000E+00
  0.00000000E+00  0.00000000E+00  0.00000000E+00
  0.00000000E+00  0.00000000E+00  0.00000000E+00
  0.00000000E+00  0.00000000E+00  0.00000000E+00
  0.00000000E+00  0.00000000E+00  0.00000000E+00
  0.00000000E+00  0.00000000E+00  0.00000000E+00
  0.00000000E+00  0.00000000E+00  0.00000000E+00
  0.00000000E+00  0.00000000E+00  0.00000000E+00
  0.00000000E+00  0.00000000E+00  0.00000000E+00
  0.00000000E+00  0.00000000E+00  0.00000000E+00
  0.00000000E+00  0.00000000E+00  0.00000000E+00
  0.00000000E+00  0.00000000E+00  0.00000000E+00
  0.00000000E+00  0.00000000E+00  0.00000000E+00
  0.00000000E+00  0.00000000E+00  0.00000000E+00
  0.00000000E+00  0.00000000E+00  0.00000000E+00
  0.00000000E+00  0.00000000E+00  0.00000000E+00
  0.00000000E+00  0.00000000E+00  0.00000000E+00
  0.00000000E+00  0.00000000E+00  0.00000000E+00
  0.00000000E+00  0.00000000E+00  0.00000000E+00
  0.00000000E+00  0.00000000E+00  0.00000000E+00
  0.00000000E+00  0.00000000E+00  0.00000000E+00
  0.00000000E+00  0.00000000E+00  0.00000000E+00
  0.00000000E+00  0.00000000E+00  0.00000000E+00
  0.00000000E+00  0.00000000E+00  0.00000000E+00
  0.00000000E+00  0.00000000E+00  0.00000000E+00
  0.00000000E+00  0.00000000E+00  0.00000000E+00
  0.00000000E+00  0.00000000E+00  0.00000000E+00
  0.00000000E+00  0.00000000E+00  0.00000000E+00
  0.00000000E+00  0.00000000E+00  0.00000000E+00
  0.00000000E+00  0.00000000E+00  0.00000000E+00
  0.00000000E+00  0.00000000E+00  0.00000000E+00
  0.00000000E+00  0.00000000E+00  0.00000000E+00
  0.00000000E+00  0.00000000E+00  0.00000000E+00
  0.00000000E+00  0.00000000E+00  0.00000000E+00
  0.00000000E+00  0.00000000E+00  0.00000000E+00
  0.00000000E+00  0.00000000E+00  0.00000000E+00
  0.00000000E+00  0.00000000E+00  0.00000000E+00
  0.00000000E+00  0.00000000E+00  0.00000000E+00
  0.00000000E+00  0.00000000E+00  0.00000000E+00
  0.00000000E+00  0.00000000E+00  0.00000000E+00
  0.00000000E+00  0.00000000E+00  0.00000000E+00
  0.00000000E+00  0.00000000E+00  0.00000000E+00
  0.00000000E+00  0.00000000E+00  0.00000000E+00
  0.00000000E+00  0.00000000E+00  0.00000000E+00
  0.00000000E+00  0.00000000E+00  0.00000000E+00
  0.00000000E+00  0.00000000E+00  0.00000000E+00
  0.00000000E+00  0.00000000E+00  0.00000000E+00
  0.00000000E+00  0.00000000E+00  0.00000000E+00
  0.00000000E+00  0.00000000E+00  0.00000000E+00
  0.00000000E+00  0.00000000E+00  0.00000000E+00
  0.00000000E+00  0.00000000E+00  0.00000000E+00
  0.00000000E+00  0.00000000E+00  0.00000000E+00
  0.00000000E+00  0.00000000E+00  0.00000000E+00
  0.00000000E+00  0.00000000E+00  0.00000000E+00
  0.00000000E+00  0.00000000E+00  0.00000000E+00
  0.00000000E+00  0.00000000E+00  0.00000000E+00
  0.00000000E+00  0.00000000E+00  0.00000000E+00
  0.00000000E+00  0.00000000E+00  0.00000000E+00
