Na3  La5  I16                           
   1.1499999999999999     
     7.4126092241359727    0.0000000000000000    0.0000000000000000
     0.0000000000000000    7.7395519323262540    0.2043969249275300
     0.0000000000000000    0.3810932584468506   13.9771414682400330
  Na              La              I             
     3     5    16
Direct
  0.7500000000000000  0.7610317126266111  0.3657899872106967
  0.7500000000000000  0.5435670599515277  0.8720311757301573
  0.2500000000000000  0.0119716102867500  0.5995338173188287
  0.2500000000000000  0.3497471682690403  0.9171602734084345
  0.7500000000000000  0.8142913778745893  0.6077265808405414
  0.7500000000000000  0.5552926246055847  0.1424963222577489
  0.2500000000000000  0.0962915546771654  0.3125674553513633
  0.2500000000000000  0.5319029287105224  0.1793882115501049
  0.2500000000000000  0.1866484865653106  0.0943143312653163
  0.7500000000000000  0.5279965939834455  0.5137482846896049
  0.7500000000000000  0.7901867834168002  0.9928722435791570
  0.2500000000000000  0.2777145029427857  0.4720119300577181
  0.2500000000000000  0.8169458999544617  0.4446447940959573
  0.7500000000000000  0.2998445921663020  0.0220013447348961
  0.7500000000000000  0.0496769673412771  0.4633520758396372
  0.2500000000000000  0.6634779002547191  0.9897727631760631
  0.0053669820150191  0.8085474284201197  0.2208063841805483
  0.9755576259167427  0.3400405115023375  0.2708074194150782
  0.4998534984031764  0.3522850130631738  0.7837587351702098
  0.4878195236471683  0.8608336762009117  0.7299211866810680
  0.0001465035968238  0.3522850130631738  0.7837587351702098
  0.0121804763528317  0.8608336762009117  0.7299211866810680
  0.4946330179849809  0.8085474284201197  0.2208063841805483
  0.5244423860832583  0.3400405115023375  0.2708074194150782

  0.00000000E+00  0.00000000E+00  0.00000000E+00
  0.00000000E+00  0.00000000E+00  0.00000000E+00
  0.00000000E+00  0.00000000E+00  0.00000000E+00
  0.00000000E+00  0.00000000E+00  0.00000000E+00
  0.00000000E+00  0.00000000E+00  0.00000000E+00
  0.00000000E+00  0.00000000E+00  0.00000000E+00
  0.00000000E+00  0.00000000E+00  0.00000000E+00
  0.00000000E+00  0.00000000E+00  0.00000000E+00
  0.00000000E+00  0.00000000E+00  0.00000000E+00
  0.00000000E+00  0.00000000E+00  0.00000000E+00
  0.00000000E+00  0.00000000E+00  0.00000000E+00
  0.00000000E+00  0.00000000E+00  0.00000000E+00
  0.00000000E+00  0.00000000E+00  0.00000000E+00
  0.00000000E+00  0.00000000E+00  0.00000000E+00
  0.00000000E+00  0.00000000E+00  0.00000000E+00
  0.00000000E+00  0.00000000E+00  0.00000000E+00
  0.00000000E+00  0.00000000E+00  0.00000000E+00
  0.00000000E+00  0.00000000E+00  0.00000000E+00
  0.00000000E+00  0.00000000E+00  0.00000000E+00
  0.00000000E+00  0.00000000E+00  0.00000000E+00
  0.00000000E+00  0.00000000E+00  0.00000000E+00
  0.00000000E+00  0.00000000E+00  0.00000000E+00
  0.00000000E+00  0.00000000E+00  0.00000000E+00
  0.00000000E+00  0.00000000E+00  0.00000000E+00
