Na6  La2  I12                           
   1.5500000000000000     
     0.0000000000000000    5.1798355758808556    0.0271825687014805
     5.4680146247195314    0.0000000000000000    0.0000000000000000
     0.0000000000000000   -5.0672660958148974   -7.8279069557998335
  Na              La              I             
     6     2    12
Direct
  0.7073991873033387  0.5792212867093250  0.7295213111010240
  0.2926008126966613  0.0792212867093250  0.7704786888989760
  0.2926008126966613  0.4207787132906750  0.2704786888989760
  0.7073991873033387  0.9207787132906750  0.2295213111010240
  0.5000000000000000  0.5000000000000000  0.0000000000000000
  0.5000000000000000  0.0000000000000000  0.5000000000000000
  0.0000000000000000  0.5000000000000000  0.5000000000000000
  0.0000000000000000  0.0000000000000000  0.0000000000000000
  0.7433040417582097  0.1844017060742115  0.4137008690623831
  0.2566959582417903  0.6844017060742115  0.0862991309376169
  0.2566959582417903  0.8155982939257885  0.5862991309376169
  0.7433040417582097  0.3155982939257885  0.9137008690623831
  0.3930910262488934  0.3204121393774662  0.5638627825575060
  0.6069089737511066  0.8204121393774662  0.9361372174424940
  0.6069089737511066  0.6795878606225338  0.4361372174424940
  0.3930910262488934  0.1795878606225338  0.0638627825575060
  0.0980502757024902  0.0734977772598068  0.2422777163426192
  0.9019497242975099  0.5734977772598068  0.2577222836573808
  0.9019497242975099  0.9265022227401932  0.7577222836573808
  0.0980502757024902  0.4265022227401932  0.7422777163426192

  0.00000000E+00  0.00000000E+00  0.00000000E+00
  0.00000000E+00  0.00000000E+00  0.00000000E+00
  0.00000000E+00  0.00000000E+00  0.00000000E+00
  0.00000000E+00  0.00000000E+00  0.00000000E+00
  0.00000000E+00  0.00000000E+00  0.00000000E+00
  0.00000000E+00  0.00000000E+00  0.00000000E+00
  0.00000000E+00  0.00000000E+00  0.00000000E+00
  0.00000000E+00  0.00000000E+00  0.00000000E+00
  0.00000000E+00  0.00000000E+00  0.00000000E+00
  0.00000000E+00  0.00000000E+00  0.00000000E+00
  0.00000000E+00  0.00000000E+00  0.00000000E+00
  0.00000000E+00  0.00000000E+00  0.00000000E+00
  0.00000000E+00  0.00000000E+00  0.00000000E+00
  0.00000000E+00  0.00000000E+00  0.00000000E+00
  0.00000000E+00  0.00000000E+00  0.00000000E+00
  0.00000000E+00  0.00000000E+00  0.00000000E+00
  0.00000000E+00  0.00000000E+00  0.00000000E+00
  0.00000000E+00  0.00000000E+00  0.00000000E+00
  0.00000000E+00  0.00000000E+00  0.00000000E+00
  0.00000000E+00  0.00000000E+00  0.00000000E+00
