Na4  La4  I16                           
   1.3499999999999999     
     6.2906091498410488   -0.0000000000000002    0.0000000000000004
     0.0000000000000012    7.4253888444529936    0.0000000000000004
    -0.0000000000000000   -0.0000000000000001    9.2805083808583841
  Na              La              I             
     4     4    16
Direct
  0.0088237924234207  0.9799232165472489  0.3744011093432249
  0.4911762075765793  0.0200767834527511  0.8744011093432249
  0.5088237924234207  0.5200767834527511  0.6255988906567751
  0.9911762075765864  0.4799232165472489  0.1255988906567751
  0.9512742401781580  0.7473389544065725  0.6955451412802418
  0.5487257598218420  0.2526610455934275  0.1955451412802418
  0.4512742401781580  0.7526610455934275  0.3044548587197582
  0.0487257598218420  0.2473389544065725  0.8044548587197582
  0.2613333299396814  0.7536260299283981  0.5488749059615543
  0.2386666700603186  0.2463739700716019  0.0488749059615543
  0.7613333299396814  0.7463739700716019  0.4511250940384457
  0.7386666700603186  0.2536260299283981  0.9511250940384457
  0.1166309605912446  0.9386170662010258  0.8754092793115831
  0.3833690394087554  0.0613829337989742  0.3754092793115760
  0.6166309605912446  0.5613829337989742  0.1245907206884240
  0.8833690394087554  0.4386170662010258  0.6245907206884169
  0.6190044401330752  0.7376310735936258  0.8012174383011725
  0.8809955598669248  0.2623689264063742  0.3012174383011725
  0.1190044401330752  0.7623689264063742  0.1987825616988275
  0.3809955598669248  0.2376310735936258  0.6987825616988275
  0.1157229405085047  0.5555818333051548  0.8757923025924086
  0.3842770594914953  0.4444181666948452  0.3757923025924086
  0.6157229405085047  0.9444181666948452  0.1242076974075985
  0.8842770594914953  0.0555818333051548  0.6242076974075914

  0.00000000E+00  0.00000000E+00  0.00000000E+00
  0.00000000E+00  0.00000000E+00  0.00000000E+00
  0.00000000E+00  0.00000000E+00  0.00000000E+00
  0.00000000E+00  0.00000000E+00  0.00000000E+00
  0.00000000E+00  0.00000000E+00  0.00000000E+00
  0.00000000E+00  0.00000000E+00  0.00000000E+00
  0.00000000E+00  0.00000000E+00  0.00000000E+00
  0.00000000E+00  0.00000000E+00  0.00000000E+00
  0.00000000E+00  0.00000000E+00  0.00000000E+00
  0.00000000E+00  0.00000000E+00  0.00000000E+00
  0.00000000E+00  0.00000000E+00  0.00000000E+00
  0.00000000E+00  0.00000000E+00  0.00000000E+00
  0.00000000E+00  0.00000000E+00  0.00000000E+00
  0.00000000E+00  0.00000000E+00  0.00000000E+00
  0.00000000E+00  0.00000000E+00  0.00000000E+00
  0.00000000E+00  0.00000000E+00  0.00000000E+00
  0.00000000E+00  0.00000000E+00  0.00000000E+00
  0.00000000E+00  0.00000000E+00  0.00000000E+00
  0.00000000E+00  0.00000000E+00  0.00000000E+00
  0.00000000E+00  0.00000000E+00  0.00000000E+00
  0.00000000E+00  0.00000000E+00  0.00000000E+00
  0.00000000E+00  0.00000000E+00  0.00000000E+00
  0.00000000E+00  0.00000000E+00  0.00000000E+00
  0.00000000E+00  0.00000000E+00  0.00000000E+00
