Na8  La24  I80                          
   1.4500000000000000     
    11.5190901016091871    0.0000000000000000    0.0000000000000007
     0.0000000000000019   11.5190901016091871    0.0000000000000007
     0.0000000000000000    0.0000000000000000   11.5190901016091871
  Na              La              I             
     8    24    80
Direct
  0.7500000000000000  0.7500000000000000  0.7500000000000000
  0.7500000000000000  0.2500000000000000  0.7500000000000000
  0.7500000000000000  0.2500000000000000  0.2500000000000000
  0.7500000000000000  0.7500000000000000  0.2500000000000000
  0.2500000000000000  0.7500000000000000  0.2500000000000000
  0.2500000000000000  0.2500000000000000  0.2500000000000000
  0.2500000000000000  0.2500000000000000  0.7500000000000000
  0.2500000000000000  0.7500000000000000  0.7500000000000000
  0.0000000000000000  0.0000000000000000  0.7603459138042855
  0.5000000000000000  0.7396540861957145  0.0000000000000000
  0.2396540861957146  0.0000000000000000  0.0000000000000000
  0.5000000000000000  0.0000000000000000  0.7396540861957145
  0.0000000000000000  0.2603459138042854  0.5000000000000000
  0.2603459138042854  0.0000000000000000  0.5000000000000000
  0.0000000000000000  0.5000000000000000  0.2603459138042854
  0.5000000000000000  0.2396540861957146  0.5000000000000000
  0.2396540861957146  0.5000000000000000  0.5000000000000000
  0.5000000000000000  0.5000000000000000  0.2396540861957146
  0.0000000000000000  0.7603459138042855  0.0000000000000000
  0.2603459138042854  0.5000000000000000  0.0000000000000000
  0.5000000000000000  0.0000000000000000  0.2603459138042854
  0.0000000000000000  0.7396540861957145  0.5000000000000000
  0.7396540861957145  0.0000000000000000  0.5000000000000000
  0.0000000000000000  0.0000000000000000  0.2396540861957146
  0.5000000000000000  0.2603459138042854  0.0000000000000000
  0.7603459138042855  0.0000000000000000  0.0000000000000000
  0.5000000000000000  0.5000000000000000  0.7603459138042855
  0.0000000000000000  0.2396540861957146  0.0000000000000000
  0.7396540861957145  0.5000000000000000  0.0000000000000000
  0.0000000000000000  0.5000000000000000  0.7396540861957145
  0.5000000000000000  0.7603459138042855  0.5000000000000000
  0.7603459138042855  0.5000000000000000  0.5000000000000000
  0.6194685335583445  0.6194685335583445  0.8805314664416555
  0.6194685335583445  0.8805314664416555  0.6194685335583445
  0.8805314664416555  0.6194685335583445  0.6194685335583445
  0.8805314664416555  0.8805314664416555  0.8805314664416555
  0.8805314664416555  0.3805314664416554  0.6194685335583445
  0.8805314664416555  0.1194685335583446  0.8805314664416555
  0.6194685335583445  0.3805314664416554  0.8805314664416555
  0.6194685335583445  0.1194685335583446  0.6194685335583445
  0.1682422309534940  0.1682422309534940  0.5000000000000000
  0.6682422309534940  0.0000000000000000  0.8317577690465060
  0.5000000000000000  0.1682422309534940  0.8317577690465060
  0.6682422309534940  0.8317577690465060  0.0000000000000000
  0.1682422309534940  0.0000000000000000  0.6682422309534940
  0.0000000000000000  0.8317577690465060  0.6682422309534940
  0.8317577690465060  0.1682422309534940  0.5000000000000000
  0.8317577690465060  0.0000000000000000  0.6682422309534940
  0.0000000000000000  0.1682422309534940  0.6682422309534940
  0.3317577690465059  0.8317577690465060  0.0000000000000000
  0.3317577690465059  0.0000000000000000  0.8317577690465060
  0.5000000000000000  0.8317577690465060  0.8317577690465060
  0.6194685335583445  0.1194685335583446  0.3805314664416554
  0.6194685335583445  0.3805314664416554  0.1194685335583446
  0.8805314664416555  0.1194685335583446  0.1194685335583446
  0.8805314664416555  0.3805314664416554  0.3805314664416554
  0.8805314664416555  0.8805314664416555  0.1194685335583446
  0.8805314664416555  0.6194685335583445  0.3805314664416554
  0.6194685335583445  0.8805314664416555  0.3805314664416554
  0.6194685335583445  0.6194685335583445  0.1194685335583446
  0.1682422309534940  0.6682422309534940  0.0000000000000000
  0.6682422309534940  0.5000000000000000  0.3317577690465059
  0.5000000000000000  0.6682422309534940  0.3317577690465059
  0.6682422309534940  0.3317577690465059  0.5000000000000000
  0.1682422309534940  0.5000000000000000  0.1682422309534940
  0.0000000000000000  0.3317577690465059  0.1682422309534940
  0.8317577690465060  0.6682422309534940  0.0000000000000000
  0.8317577690465060  0.5000000000000000  0.1682422309534940
  0.0000000000000000  0.6682422309534940  0.1682422309534940
  0.3317577690465059  0.3317577690465059  0.5000000000000000
  0.3317577690465059  0.5000000000000000  0.3317577690465059
  0.5000000000000000  0.3317577690465059  0.3317577690465059
  0.1194685335583446  0.6194685335583445  0.3805314664416554
  0.1194685335583446  0.8805314664416555  0.1194685335583446
  0.3805314664416554  0.6194685335583445  0.1194685335583446
  0.3805314664416554  0.8805314664416555  0.3805314664416554
  0.3805314664416554  0.3805314664416554  0.1194685335583446
  0.3805314664416554  0.1194685335583446  0.3805314664416554
  0.1194685335583446  0.3805314664416554  0.3805314664416554
  0.1194685335583446  0.1194685335583446  0.1194685335583446
  0.6682422309534940  0.1682422309534940  0.0000000000000000
  0.1682422309534940  0.0000000000000000  0.3317577690465059
  0.0000000000000000  0.1682422309534940  0.3317577690465059
  0.1682422309534940  0.8317577690465060  0.5000000000000000
  0.6682422309534940  0.0000000000000000  0.1682422309534940
  0.5000000000000000  0.8317577690465060  0.1682422309534940
  0.3317577690465059  0.1682422309534940  0.0000000000000000
  0.3317577690465059  0.0000000000000000  0.1682422309534940
  0.5000000000000000  0.1682422309534940  0.1682422309534940
  0.8317577690465060  0.8317577690465060  0.5000000000000000
  0.8317577690465060  0.0000000000000000  0.3317577690465059
  0.0000000000000000  0.8317577690465060  0.3317577690465059
  0.1194685335583446  0.1194685335583446  0.8805314664416555
  0.1194685335583446  0.3805314664416554  0.6194685335583445
  0.3805314664416554  0.1194685335583446  0.6194685335583445
  0.3805314664416554  0.3805314664416554  0.8805314664416555
  0.3805314664416554  0.8805314664416555  0.6194685335583445
  0.3805314664416554  0.6194685335583445  0.8805314664416555
  0.1194685335583446  0.8805314664416555  0.8805314664416555
  0.1194685335583446  0.6194685335583445  0.6194685335583445
  0.6682422309534940  0.6682422309534940  0.5000000000000000
  0.1682422309534940  0.5000000000000000  0.8317577690465060
  0.0000000000000000  0.6682422309534940  0.8317577690465060
  0.1682422309534940  0.3317577690465059  0.0000000000000000
  0.6682422309534940  0.5000000000000000  0.6682422309534940
  0.5000000000000000  0.3317577690465059  0.6682422309534940
  0.3317577690465059  0.6682422309534940  0.5000000000000000
  0.3317577690465059  0.5000000000000000  0.6682422309534940
  0.5000000000000000  0.6682422309534940  0.6682422309534940
  0.8317577690465060  0.3317577690465059  0.0000000000000000
  0.8317577690465060  0.5000000000000000  0.8317577690465060
  0.0000000000000000  0.3317577690465059  0.8317577690465060

  0.00000000E+00  0.00000000E+00  0.00000000E+00
  0.00000000E+00  0.00000000E+00  0.00000000E+00
  0.00000000E+00  0.00000000E+00  0.00000000E+00
  0.00000000E+00  0.00000000E+00  0.00000000E+00
  0.00000000E+00  0.00000000E+00  0.00000000E+00
  0.00000000E+00  0.00000000E+00  0.00000000E+00
  0.00000000E+00  0.00000000E+00  0.00000000E+00
  0.00000000E+00  0.00000000E+00  0.00000000E+00
  0.00000000E+00  0.00000000E+00  0.00000000E+00
  0.00000000E+00  0.00000000E+00  0.00000000E+00
  0.00000000E+00  0.00000000E+00  0.00000000E+00
  0.00000000E+00  0.00000000E+00  0.00000000E+00
  0.00000000E+00  0.00000000E+00  0.00000000E+00
  0.00000000E+00  0.00000000E+00  0.00000000E+00
  0.00000000E+00  0.00000000E+00  0.00000000E+00
  0.00000000E+00  0.00000000E+00  0.00000000E+00
  0.00000000E+00  0.00000000E+00  0.00000000E+00
  0.00000000E+00  0.00000000E+00  0.00000000E+00
  0.00000000E+00  0.00000000E+00  0.00000000E+00
  0.00000000E+00  0.00000000E+00  0.00000000E+00
  0.00000000E+00  0.00000000E+00  0.00000000E+00
  0.00000000E+00  0.00000000E+00  0.00000000E+00
  0.00000000E+00  0.00000000E+00  0.00000000E+00
  0.00000000E+00  0.00000000E+00  0.00000000E+00
  0.00000000E+00  0.00000000E+00  0.00000000E+00
  0.00000000E+00  0.00000000E+00  0.00000000E+00
  0.00000000E+00  0.00000000E+00  0.00000000E+00
  0.00000000E+00  0.00000000E+00  0.00000000E+00
  0.00000000E+00  0.00000000E+00  0.00000000E+00
  0.00000000E+00  0.00000000E+00  0.00000000E+00
  0.00000000E+00  0.00000000E+00  0.00000000E+00
  0.00000000E+00  0.00000000E+00  0.00000000E+00
  0.00000000E+00  0.00000000E+00  0.00000000E+00
  0.00000000E+00  0.00000000E+00  0.00000000E+00
  0.00000000E+00  0.00000000E+00  0.00000000E+00
  0.00000000E+00  0.00000000E+00  0.00000000E+00
  0.00000000E+00  0.00000000E+00  0.00000000E+00
  0.00000000E+00  0.00000000E+00  0.00000000E+00
  0.00000000E+00  0.00000000E+00  0.00000000E+00
  0.00000000E+00  0.00000000E+00  0.00000000E+00
  0.00000000E+00  0.00000000E+00  0.00000000E+00
  0.00000000E+00  0.00000000E+00  0.00000000E+00
  0.00000000E+00  0.00000000E+00  0.00000000E+00
  0.00000000E+00  0.00000000E+00  0.00000000E+00
  0.00000000E+00  0.00000000E+00  0.00000000E+00
  0.00000000E+00  0.00000000E+00  0.00000000E+00
  0.00000000E+00  0.00000000E+00  0.00000000E+00
  0.00000000E+00  0.00000000E+00  0.00000000E+00
  0.00000000E+00  0.00000000E+00  0.00000000E+00
  0.00000000E+00  0.00000000E+00  0.00000000E+00
  0.00000000E+00  0.00000000E+00  0.00000000E+00
  0.00000000E+00  0.00000000E+00  0.00000000E+00
  0.00000000E+00  0.00000000E+00  0.00000000E+00
  0.00000000E+00  0.00000000E+00  0.00000000E+00
  0.00000000E+00  0.00000000E+00  0.00000000E+00
  0.00000000E+00  0.00000000E+00  0.00000000E+00
  0.00000000E+00  0.00000000E+00  0.00000000E+00
  0.00000000E+00  0.00000000E+00  0.00000000E+00
  0.00000000E+00  0.00000000E+00  0.00000000E+00
  0.00000000E+00  0.00000000E+00  0.00000000E+00
  0.00000000E+00  0.00000000E+00  0.00000000E+00
  0.00000000E+00  0.00000000E+00  0.00000000E+00
  0.00000000E+00  0.00000000E+00  0.00000000E+00
  0.00000000E+00  0.00000000E+00  0.00000000E+00
  0.00000000E+00  0.00000000E+00  0.00000000E+00
  0.00000000E+00  0.00000000E+00  0.00000000E+00
  0.00000000E+00  0.00000000E+00  0.00000000E+00
  0.00000000E+00  0.00000000E+00  0.00000000E+00
  0.00000000E+00  0.00000000E+00  0.00000000E+00
  0.00000000E+00  0.00000000E+00  0.00000000E+00
  0.00000000E+00  0.00000000E+00  0.00000000E+00
  0.00000000E+00  0.00000000E+00  0.00000000E+00
  0.00000000E+00  0.00000000E+00  0.00000000E+00
  0.00000000E+00  0.00000000E+00  0.00000000E+00
  0.00000000E+00  0.00000000E+00  0.00000000E+00
  0.00000000E+00  0.00000000E+00  0.00000000E+00
  0.00000000E+00  0.00000000E+00  0.00000000E+00
  0.00000000E+00  0.00000000E+00  0.00000000E+00
  0.00000000E+00  0.00000000E+00  0.00000000E+00
  0.00000000E+00  0.00000000E+00  0.00000000E+00
  0.00000000E+00  0.00000000E+00  0.00000000E+00
  0.00000000E+00  0.00000000E+00  0.00000000E+00
  0.00000000E+00  0.00000000E+00  0.00000000E+00
  0.00000000E+00  0.00000000E+00  0.00000000E+00
  0.00000000E+00  0.00000000E+00  0.00000000E+00
  0.00000000E+00  0.00000000E+00  0.00000000E+00
  0.00000000E+00  0.00000000E+00  0.00000000E+00
  0.00000000E+00  0.00000000E+00  0.00000000E+00
  0.00000000E+00  0.00000000E+00  0.00000000E+00
  0.00000000E+00  0.00000000E+00  0.00000000E+00
  0.00000000E+00  0.00000000E+00  0.00000000E+00
  0.00000000E+00  0.00000000E+00  0.00000000E+00
  0.00000000E+00  0.00000000E+00  0.00000000E+00
  0.00000000E+00  0.00000000E+00  0.00000000E+00
  0.00000000E+00  0.00000000E+00  0.00000000E+00
  0.00000000E+00  0.00000000E+00  0.00000000E+00
  0.00000000E+00  0.00000000E+00  0.00000000E+00
  0.00000000E+00  0.00000000E+00  0.00000000E+00
  0.00000000E+00  0.00000000E+00  0.00000000E+00
  0.00000000E+00  0.00000000E+00  0.00000000E+00
  0.00000000E+00  0.00000000E+00  0.00000000E+00
  0.00000000E+00  0.00000000E+00  0.00000000E+00
  0.00000000E+00  0.00000000E+00  0.00000000E+00
  0.00000000E+00  0.00000000E+00  0.00000000E+00
  0.00000000E+00  0.00000000E+00  0.00000000E+00
  0.00000000E+00  0.00000000E+00  0.00000000E+00
  0.00000000E+00  0.00000000E+00  0.00000000E+00
  0.00000000E+00  0.00000000E+00  0.00000000E+00
  0.00000000E+00  0.00000000E+00  0.00000000E+00
  0.00000000E+00  0.00000000E+00  0.00000000E+00
  0.00000000E+00  0.00000000E+00  0.00000000E+00
  0.00000000E+00  0.00000000E+00  0.00000000E+00
