Na8  La4  I20                           
   1.6000000000000001     
     0.0000000000000000    7.3449752488538111   -0.0873947713107403
     5.0288697002067746    0.0000000000000000    0.0000000000000000
     0.0000000000000000   -3.2828876634541815   -9.4889494545693100
  Na              La              I             
     8     4    20
Direct
  0.3540510875785046  0.2932486722971603  0.2353895518311049
  0.6459489124214954  0.7932486722971674  0.2646104481688951
  0.6459489124214954  0.7067513277028326  0.7646104481688951
  0.3540510875785046  0.2067513277028397  0.7353895518311049
  0.1053168636580395  0.0144923190242778  0.3821415315552201
  0.8946831363419605  0.5144923190242778  0.1178584684447799
  0.8946831363419605  0.9855076809757222  0.6178584684447799
  0.1053168636580395  0.4855076809757222  0.8821415315552201
  0.5000000000000000  0.0000000000000000  0.0000000000000000
  0.5000000000000000  0.5000000000000000  0.5000000000000000
  0.0000000000000000  0.0000000000000000  0.0000000000000000
  0.0000000000000000  0.5000000000000000  0.5000000000000000
  0.4319680428950079  0.8519280014538495  0.8083194682639885
  0.5680319571049921  0.3519280014538495  0.6916805317360115
  0.5680319571049921  0.1480719985461505  0.1916805317360115
  0.4319680428950079  0.6480719985461505  0.3083194682639885
  0.6338809781338810  0.6692596304426957  0.0818602452424813
  0.3661190218661190  0.1692596304426957  0.4181397547575187
  0.3661190218661190  0.3307403695573043  0.9181397547575187
  0.6338809781338810  0.8307403695573043  0.5818602452424813
  0.2530450999947860  0.8313582888398088  0.0091955499487497
  0.7469549000052140  0.3313582888398088  0.4908044500512503
  0.7469549000052140  0.1686417111601912  0.9908044500512503
  0.2530450999947860  0.6686417111601912  0.5091955499487497
  0.0372037808703283  0.6455725845928981  0.6885728098217143
  0.9627962191296646  0.1455725845928981  0.8114271901782857
  0.9627962191296646  0.3544274154071019  0.3114271901782857
  0.0372037808703283  0.8544274154071019  0.1885728098217143
  0.8768148185396072  0.8392919823979099  0.4179474689087073
  0.1231851814603928  0.3392919823979099  0.0820525310912856
  0.1231851814603928  0.1607080176020901  0.5820525310912927
  0.8768148185396072  0.6607080176020901  0.9179474689087073

  0.00000000E+00  0.00000000E+00  0.00000000E+00
  0.00000000E+00  0.00000000E+00  0.00000000E+00
  0.00000000E+00  0.00000000E+00  0.00000000E+00
  0.00000000E+00  0.00000000E+00  0.00000000E+00
  0.00000000E+00  0.00000000E+00  0.00000000E+00
  0.00000000E+00  0.00000000E+00  0.00000000E+00
  0.00000000E+00  0.00000000E+00  0.00000000E+00
  0.00000000E+00  0.00000000E+00  0.00000000E+00
  0.00000000E+00  0.00000000E+00  0.00000000E+00
  0.00000000E+00  0.00000000E+00  0.00000000E+00
  0.00000000E+00  0.00000000E+00  0.00000000E+00
  0.00000000E+00  0.00000000E+00  0.00000000E+00
  0.00000000E+00  0.00000000E+00  0.00000000E+00
  0.00000000E+00  0.00000000E+00  0.00000000E+00
  0.00000000E+00  0.00000000E+00  0.00000000E+00
  0.00000000E+00  0.00000000E+00  0.00000000E+00
  0.00000000E+00  0.00000000E+00  0.00000000E+00
  0.00000000E+00  0.00000000E+00  0.00000000E+00
  0.00000000E+00  0.00000000E+00  0.00000000E+00
  0.00000000E+00  0.00000000E+00  0.00000000E+00
  0.00000000E+00  0.00000000E+00  0.00000000E+00
  0.00000000E+00  0.00000000E+00  0.00000000E+00
  0.00000000E+00  0.00000000E+00  0.00000000E+00
  0.00000000E+00  0.00000000E+00  0.00000000E+00
  0.00000000E+00  0.00000000E+00  0.00000000E+00
  0.00000000E+00  0.00000000E+00  0.00000000E+00
  0.00000000E+00  0.00000000E+00  0.00000000E+00
  0.00000000E+00  0.00000000E+00  0.00000000E+00
  0.00000000E+00  0.00000000E+00  0.00000000E+00
  0.00000000E+00  0.00000000E+00  0.00000000E+00
  0.00000000E+00  0.00000000E+00  0.00000000E+00
  0.00000000E+00  0.00000000E+00  0.00000000E+00
