Na3  La9  I30                           
   1.4500000000000000     
     4.6994671293806238   -8.1397158365871043    0.0000000000000000
     4.6994671293806238    8.1397158365871043   -0.0000000000000000
    -0.0000000000000000   -0.0000000000000000    9.3222890807817667
  Na              La              I             
     3     9    30
Direct
  0.0000000000000000  0.0000000000000000  0.1253199261953029
  0.6666666666666643  0.3333333333333357  0.4586532595286315
  0.3333333333333357  0.6666666666666643  0.7919865928619672
  0.1816871837778038  0.3633743675556218  0.3399960373401356
  0.1816871837778038  0.8183128162221962  0.3399960373401356
  0.6366256324443782  0.8183128162221962  0.3399960373401356
  0.8483538504444752  0.6967077008889504  0.6733293706734642
  0.8483538504444752  0.1516461495555248  0.6733293706734642
  0.3032922991110496  0.1516461495555248  0.6733293706734642
  0.5150205171111395  0.0300410342222861  0.0066627040067999
  0.5150205171111395  0.4849794828888605  0.0066627040067999
  0.9699589657777139  0.4849794828888605  0.0066627040067999
  0.6808394763887975  0.0316176539538162  0.4902494648850606
  0.6808394763887975  0.6492218224349742  0.4902494648850606
  0.0000000000000000  0.0000000000000000  0.3401555200996356
  0.9683823460461838  0.3191605236112025  0.4902494648850606
  0.9683823460461838  0.6492218224349742  0.4902494648850606
  0.8148467603943672  0.9074233801971729  0.6670128841247660
  0.3507781775650258  0.3191605236112025  0.4902494648850606
  0.3507781775650258  0.0316176539538162  0.4902494648850606
  0.0925766198028199  0.1851532396056328  0.6670128841247660
  0.0925766198028199  0.9074233801971801  0.6670128841247660
  0.3475061430554689  0.3649509872871519  0.8235827982184034
  0.3475061430554689  0.9825551557683099  0.8235827982184034
  0.6666666666666643  0.3333333333333357  0.6734888534329713
  0.6350490127128481  0.6524938569445311  0.8235827982184034
  0.6350490127128481  0.9825551557683099  0.8235827982184034
  0.4815134270610315  0.2407567135305086  0.0003462174581017
  0.0174448442316901  0.6524938569445311  0.8235827982184034
  0.0174448442316901  0.3649509872871519  0.8235827982184034
  0.7592432864694914  0.5184865729389685  0.0003462174581017
  0.7592432864694914  0.2407567135305086  0.0003462174581017
  0.0141728097221332  0.6982843206204876  0.1569161315517320
  0.0141728097221332  0.3158884891016385  0.1569161315517320
  0.3333333333333357  0.6666666666666643  0.0068221867662999
  0.3017156793795124  0.9858271902778668  0.1569161315517320
  0.3017156793795124  0.3158884891016385  0.1569161315517320
  0.1481800937277029  0.5740900468638443  0.3336795507914303
  0.6841115108983615  0.9858271902778668  0.1569161315517320
  0.6841115108983615  0.6982843206204876  0.1569161315517320
  0.4259099531361557  0.8518199062722971  0.3336795507914303
  0.4259099531361557  0.5740900468638443  0.3336795507914303

  0.00000000E+00  0.00000000E+00  0.00000000E+00
  0.00000000E+00  0.00000000E+00  0.00000000E+00
  0.00000000E+00  0.00000000E+00  0.00000000E+00
  0.00000000E+00  0.00000000E+00  0.00000000E+00
  0.00000000E+00  0.00000000E+00  0.00000000E+00
  0.00000000E+00  0.00000000E+00  0.00000000E+00
  0.00000000E+00  0.00000000E+00  0.00000000E+00
  0.00000000E+00  0.00000000E+00  0.00000000E+00
  0.00000000E+00  0.00000000E+00  0.00000000E+00
  0.00000000E+00  0.00000000E+00  0.00000000E+00
  0.00000000E+00  0.00000000E+00  0.00000000E+00
  0.00000000E+00  0.00000000E+00  0.00000000E+00
  0.00000000E+00  0.00000000E+00  0.00000000E+00
  0.00000000E+00  0.00000000E+00  0.00000000E+00
  0.00000000E+00  0.00000000E+00  0.00000000E+00
  0.00000000E+00  0.00000000E+00  0.00000000E+00
  0.00000000E+00  0.00000000E+00  0.00000000E+00
  0.00000000E+00  0.00000000E+00  0.00000000E+00
  0.00000000E+00  0.00000000E+00  0.00000000E+00
  0.00000000E+00  0.00000000E+00  0.00000000E+00
  0.00000000E+00  0.00000000E+00  0.00000000E+00
  0.00000000E+00  0.00000000E+00  0.00000000E+00
  0.00000000E+00  0.00000000E+00  0.00000000E+00
  0.00000000E+00  0.00000000E+00  0.00000000E+00
  0.00000000E+00  0.00000000E+00  0.00000000E+00
  0.00000000E+00  0.00000000E+00  0.00000000E+00
  0.00000000E+00  0.00000000E+00  0.00000000E+00
  0.00000000E+00  0.00000000E+00  0.00000000E+00
  0.00000000E+00  0.00000000E+00  0.00000000E+00
  0.00000000E+00  0.00000000E+00  0.00000000E+00
  0.00000000E+00  0.00000000E+00  0.00000000E+00
  0.00000000E+00  0.00000000E+00  0.00000000E+00
  0.00000000E+00  0.00000000E+00  0.00000000E+00
  0.00000000E+00  0.00000000E+00  0.00000000E+00
  0.00000000E+00  0.00000000E+00  0.00000000E+00
  0.00000000E+00  0.00000000E+00  0.00000000E+00
  0.00000000E+00  0.00000000E+00  0.00000000E+00
  0.00000000E+00  0.00000000E+00  0.00000000E+00
  0.00000000E+00  0.00000000E+00  0.00000000E+00
  0.00000000E+00  0.00000000E+00  0.00000000E+00
  0.00000000E+00  0.00000000E+00  0.00000000E+00
  0.00000000E+00  0.00000000E+00  0.00000000E+00
