Na4  La4  I12                           
   1.0500000000000003     
    11.2400061726252840    0.0000000000000000    0.0000000000000000
     0.0000000000000000    8.1341011058153558   -0.3060552334312682
     0.0000000000000000   -0.0661899840131026    8.1508475283224708
  Na              La              I             
     4     4    12
Direct
  0.5000000000000000  0.0000000000000000  0.5000000000000000
  0.5000000000000000  0.5000000000000000  0.0000000000000000
  0.0000000000000000  0.0000000000000000  0.5000000000000000
  0.0000000000000000  0.5000000000000000  0.0000000000000000
  0.2500000000000000  0.8637041056759145  0.8156337217858223
  0.7500000000000000  0.8193892197906152  0.8660759937086340
  0.7500000000000000  0.1362958753240804  0.1843662782141777
  0.2500000000000000  0.1806108092093837  0.1339240062913660
  0.7500000000000000  0.4223361375516248  0.9388672673621130
  0.5010386953902852  0.6971883206536162  0.6973748318938746
  0.0010386723902869  0.3028116493463813  0.3026251381061229
  0.4989613346097173  0.3028116493463813  0.3026251381061229
  0.0767717118540148  0.1607833254711366  0.8376375129954710
  0.5767717188540118  0.8392166595288657  0.1623625020045267
  0.9232282811459882  0.8392166595288657  0.1623625020045267
  0.4232282811459882  0.1607833254711366  0.8376375129954710
  0.2500000000000000  0.5776638624483752  0.0611327406378877
  0.7500000000000000  0.0661930053789135  0.5802532376009921
  0.2500000000000000  0.9338070236210854  0.4197467323990054
  0.9989613046097148  0.6971883206536162  0.6973748318938746

  0.00000000E+00  0.00000000E+00  0.00000000E+00
  0.00000000E+00  0.00000000E+00  0.00000000E+00
  0.00000000E+00  0.00000000E+00  0.00000000E+00
  0.00000000E+00  0.00000000E+00  0.00000000E+00
  0.00000000E+00  0.00000000E+00  0.00000000E+00
  0.00000000E+00  0.00000000E+00  0.00000000E+00
  0.00000000E+00  0.00000000E+00  0.00000000E+00
  0.00000000E+00  0.00000000E+00  0.00000000E+00
  0.00000000E+00  0.00000000E+00  0.00000000E+00
  0.00000000E+00  0.00000000E+00  0.00000000E+00
  0.00000000E+00  0.00000000E+00  0.00000000E+00
  0.00000000E+00  0.00000000E+00  0.00000000E+00
  0.00000000E+00  0.00000000E+00  0.00000000E+00
  0.00000000E+00  0.00000000E+00  0.00000000E+00
  0.00000000E+00  0.00000000E+00  0.00000000E+00
  0.00000000E+00  0.00000000E+00  0.00000000E+00
  0.00000000E+00  0.00000000E+00  0.00000000E+00
  0.00000000E+00  0.00000000E+00  0.00000000E+00
  0.00000000E+00  0.00000000E+00  0.00000000E+00
  0.00000000E+00  0.00000000E+00  0.00000000E+00
