Na3  La3  I12                           
   1.4500000000000000     
     3.0465280104067212   -5.2767412958701394    0.0000000000000000
     3.0465280062185998    5.2767412982881536    0.0000000000000000
     0.0000000000000000    0.0000000000000000    6.7917378140266935
  Na              La              I             
     3     3    12
Direct
  0.0000000000000000  0.0000000000000000  0.2568046514963953
  0.0000000000000000  0.0000000000000000  0.7600080779057734
  0.6666666666666643  0.3333333333333357  0.6348307741119754
  0.3333333333333357  0.6666666666666643  0.3831412902227527
  0.3333333333333357  0.6666666666666643  0.8751405860595298
  0.6666666666666643  0.3333333333333357  0.1306754288248939
  0.0857702247699024  0.6944174928909774  0.1300250770016049
  0.0965070964775876  0.7080856467762615  0.6300880857267472
  0.3055825071090226  0.3913527318789249  0.1300250770016049
  0.2919143532237385  0.3884214497013332  0.6300880857267472
  0.6086472681210751  0.9142297752300976  0.1300250770016049
  0.6115785502986668  0.9034929035224053  0.6300880857267472
  0.3838233529399346  0.0815381569815798  0.3714485466297930
  0.3835288350756727  0.0803362004360935  0.8895713544347288
  0.6977148040416381  0.6161766470600654  0.3714485466297930
  0.6968073653604208  0.6164711649243273  0.8895713544347288
  0.9184618430184202  0.3022851959583619  0.3714485466297930
  0.9196637995639065  0.3031926346395792  0.8895713544347288

  0.00000000E+00  0.00000000E+00  0.00000000E+00
  0.00000000E+00  0.00000000E+00  0.00000000E+00
  0.00000000E+00  0.00000000E+00  0.00000000E+00
  0.00000000E+00  0.00000000E+00  0.00000000E+00
  0.00000000E+00  0.00000000E+00  0.00000000E+00
  0.00000000E+00  0.00000000E+00  0.00000000E+00
  0.00000000E+00  0.00000000E+00  0.00000000E+00
  0.00000000E+00  0.00000000E+00  0.00000000E+00
  0.00000000E+00  0.00000000E+00  0.00000000E+00
  0.00000000E+00  0.00000000E+00  0.00000000E+00
  0.00000000E+00  0.00000000E+00  0.00000000E+00
  0.00000000E+00  0.00000000E+00  0.00000000E+00
  0.00000000E+00  0.00000000E+00  0.00000000E+00
  0.00000000E+00  0.00000000E+00  0.00000000E+00
  0.00000000E+00  0.00000000E+00  0.00000000E+00
  0.00000000E+00  0.00000000E+00  0.00000000E+00
  0.00000000E+00  0.00000000E+00  0.00000000E+00
  0.00000000E+00  0.00000000E+00  0.00000000E+00
