Na6  La4  I18                           
   1.2000000000000000     
     9.5549703433164730    0.5556619997811131    0.5104857349146344
     1.5081009285988021    9.1212683364854374    0.5511313787212068
     1.6029148981384511    1.2452564623023350    8.9741660534224437
  Na              La              I             
     6     4    18
Direct
  0.2675999193531879  0.6667380808376819  0.0008853308629710
  0.8348309353259964  0.9013057477893369  0.2012435213403236
  0.8112207310557054  0.4808023046747039  0.1768616691994254
  0.3203695688456136  0.9990833329153190  0.6723590683509499
  0.4876195239143186  0.8373951256184569  0.1614617201085125
  0.9857925588957883  0.3193571192634366  0.6838307113927939
  0.8308997069770498  0.8519678437192653  0.8171718840363695
  0.3493809610368643  0.3486083783085405  0.3338063422620294
  0.1492575196019033  0.1592266105349509  0.1587571103136511
  0.6469402368712807  0.6429450296837587  0.6515501936299017
  0.0269604434816699  0.0178596635181805  0.7098417858265549
  0.9802708332309678  0.6949766084362210  0.0283493442640435
  0.6703943329391890  0.0218919904629331  0.0071080365292815
  0.2779903204831484  0.2969950697143062  0.6302666585753371
  0.3043058406563546  0.6409281649319425  0.2805751073249922
  0.6256485515409054  0.2963359800877896  0.3043557759344893
  0.9961207017237683  0.9758196533039083  0.3377645679985335
  0.9605938222637889  0.2937271222369233  0.9905539516736823
  0.2952749809486761  0.9656587911075576  0.9790910249734353
  0.6752429724189071  0.6952434981119495  0.3505085202761151
  0.7050321981201435  0.3587557473883436  0.6827933097608323
  0.3618272375611511  0.6991361913200791  0.7046382837191345
  0.0505113323805659  0.3596109196360118  0.3502427833093478
  0.3415259581357120  0.3527958994632669  0.0404781576704494
  0.3496157836456106  0.0484706292549930  0.3473853354040344
  0.6375107735869960  0.9443692883720303  0.6318078194256458
  0.9331802145873880  0.6418792022559074  0.6376664501853782
  0.6414120404173360  0.6490060070521508  0.9504255356517817

  0.00000000E+00  0.00000000E+00  0.00000000E+00
  0.00000000E+00  0.00000000E+00  0.00000000E+00
  0.00000000E+00  0.00000000E+00  0.00000000E+00
  0.00000000E+00  0.00000000E+00  0.00000000E+00
  0.00000000E+00  0.00000000E+00  0.00000000E+00
  0.00000000E+00  0.00000000E+00  0.00000000E+00
  0.00000000E+00  0.00000000E+00  0.00000000E+00
  0.00000000E+00  0.00000000E+00  0.00000000E+00
  0.00000000E+00  0.00000000E+00  0.00000000E+00
  0.00000000E+00  0.00000000E+00  0.00000000E+00
  0.00000000E+00  0.00000000E+00  0.00000000E+00
  0.00000000E+00  0.00000000E+00  0.00000000E+00
  0.00000000E+00  0.00000000E+00  0.00000000E+00
  0.00000000E+00  0.00000000E+00  0.00000000E+00
  0.00000000E+00  0.00000000E+00  0.00000000E+00
  0.00000000E+00  0.00000000E+00  0.00000000E+00
  0.00000000E+00  0.00000000E+00  0.00000000E+00
  0.00000000E+00  0.00000000E+00  0.00000000E+00
  0.00000000E+00  0.00000000E+00  0.00000000E+00
  0.00000000E+00  0.00000000E+00  0.00000000E+00
  0.00000000E+00  0.00000000E+00  0.00000000E+00
  0.00000000E+00  0.00000000E+00  0.00000000E+00
  0.00000000E+00  0.00000000E+00  0.00000000E+00
  0.00000000E+00  0.00000000E+00  0.00000000E+00
  0.00000000E+00  0.00000000E+00  0.00000000E+00
  0.00000000E+00  0.00000000E+00  0.00000000E+00
  0.00000000E+00  0.00000000E+00  0.00000000E+00
  0.00000000E+00  0.00000000E+00  0.00000000E+00
