Na2  La4  I14                           
   1.4500000000000000     
     0.0000000000000000    6.8199035727653738    0.0465090470026910
     3.9479195283980153    0.0000000000000000    0.0000000000000000
     0.0000000000000000   -2.2447534730446712  -10.6493828027803978
  Na              La              I             
     2     4    14
Direct
  0.0000000000000000  0.0000000000000000  0.0000000000000000
  0.5000000000000000  0.5000000000000000  0.0000000000000000
  0.5705099005336294  0.0000000000000000  0.7090627573652100
  0.9294900994663706  0.5000000000000000  0.2909372426347900
  0.0705099005336294  0.5000000000000000  0.7090627573652100
  0.4294900994663706  0.0000000000000000  0.2909372426347900
  0.7191216759466244  0.5000000000000000  0.6559237159817854
  0.5779241728804365  0.5000000000000000  0.2373214187753589
  0.0000000000000000  0.5000000000000000  0.5000000000000000
  0.7808783240533756  0.0000000000000000  0.3440762840182146
  0.6396339065410430  0.0000000000000000  0.9145935503955229
  0.8603660934589570  0.5000000000000000  0.0854064496044771
  0.9220758271195635  0.0000000000000000  0.7626785812246411
  0.2191216759466244  0.0000000000000000  0.6559237159817854
  0.0779241728804365  0.0000000000000000  0.2373214187753589
  0.5000000000000000  0.0000000000000000  0.5000000000000000
  0.2808783240533756  0.5000000000000000  0.3440762840182146
  0.1396339065410430  0.5000000000000000  0.9145935503955229
  0.3603660934589570  0.0000000000000000  0.0854064496044771
  0.4220758271195635  0.5000000000000000  0.7626785812246411

  0.00000000E+00  0.00000000E+00  0.00000000E+00
  0.00000000E+00  0.00000000E+00  0.00000000E+00
  0.00000000E+00  0.00000000E+00  0.00000000E+00
  0.00000000E+00  0.00000000E+00  0.00000000E+00
  0.00000000E+00  0.00000000E+00  0.00000000E+00
  0.00000000E+00  0.00000000E+00  0.00000000E+00
  0.00000000E+00  0.00000000E+00  0.00000000E+00
  0.00000000E+00  0.00000000E+00  0.00000000E+00
  0.00000000E+00  0.00000000E+00  0.00000000E+00
  0.00000000E+00  0.00000000E+00  0.00000000E+00
  0.00000000E+00  0.00000000E+00  0.00000000E+00
  0.00000000E+00  0.00000000E+00  0.00000000E+00
  0.00000000E+00  0.00000000E+00  0.00000000E+00
  0.00000000E+00  0.00000000E+00  0.00000000E+00
  0.00000000E+00  0.00000000E+00  0.00000000E+00
  0.00000000E+00  0.00000000E+00  0.00000000E+00
  0.00000000E+00  0.00000000E+00  0.00000000E+00
  0.00000000E+00  0.00000000E+00  0.00000000E+00
  0.00000000E+00  0.00000000E+00  0.00000000E+00
  0.00000000E+00  0.00000000E+00  0.00000000E+00
