Na4  La4  I16                           
   1.2500000000000000     
     6.8656887464494263   -0.0000000000000001    0.0000000000000004
     0.0000000000000010    6.8944847190507614    0.0000000000000004
    -0.0000000000000001   -0.0000000000000001   13.4762868163707683
  Na              La              I             
     4     4    16
Direct
  0.2500000000000000  0.0560584941175293  0.6713112126268825
  0.7500000000000000  0.5560584941175293  0.8286887873731175
  0.7500000000000000  0.9439415058824707  0.3286887873731175
  0.2500000000000000  0.4439415058824707  0.1713112126268825
  0.2500000000000000  0.1874603236533545  0.4140750790124628
  0.7500000000000000  0.6874603236533545  0.0859249209875372
  0.7500000000000000  0.8125396763466455  0.5859249209875372
  0.2500000000000000  0.3125396763466455  0.9140750790124628
  0.2500000000000000  0.3700989651966822  0.5666928842388614
  0.7500000000000000  0.8700989651966751  0.9333071157611386
  0.7500000000000000  0.6299010348033249  0.4333071157611386
  0.2500000000000000  0.1299010348033178  0.0666928842388614
  0.2500000000000000  0.8663952073370211  0.4881172658049877
  0.7500000000000000  0.3663952073370211  0.0118827341950123
  0.7500000000000000  0.1336047926629789  0.5118827341950123
  0.2500000000000000  0.6336047926629789  0.9881172658049877
  0.9943204717828280  0.2551977338284601  0.7910195771781545
  0.0056795282171720  0.7551977338284601  0.7089804228218455
  0.4943204717828280  0.7448022661715399  0.2089804228218455
  0.5056795282171720  0.2448022661715399  0.2910195771781545
  0.0056795282171720  0.7448022661715399  0.2089804228218455
  0.9943204717828280  0.2448022661715399  0.2910195771781545
  0.5056795282171720  0.2551977338284601  0.7910195771781545
  0.4943204717828280  0.7551977338284601  0.7089804228218455

  0.00000000E+00  0.00000000E+00  0.00000000E+00
  0.00000000E+00  0.00000000E+00  0.00000000E+00
  0.00000000E+00  0.00000000E+00  0.00000000E+00
  0.00000000E+00  0.00000000E+00  0.00000000E+00
  0.00000000E+00  0.00000000E+00  0.00000000E+00
  0.00000000E+00  0.00000000E+00  0.00000000E+00
  0.00000000E+00  0.00000000E+00  0.00000000E+00
  0.00000000E+00  0.00000000E+00  0.00000000E+00
  0.00000000E+00  0.00000000E+00  0.00000000E+00
  0.00000000E+00  0.00000000E+00  0.00000000E+00
  0.00000000E+00  0.00000000E+00  0.00000000E+00
  0.00000000E+00  0.00000000E+00  0.00000000E+00
  0.00000000E+00  0.00000000E+00  0.00000000E+00
  0.00000000E+00  0.00000000E+00  0.00000000E+00
  0.00000000E+00  0.00000000E+00  0.00000000E+00
  0.00000000E+00  0.00000000E+00  0.00000000E+00
  0.00000000E+00  0.00000000E+00  0.00000000E+00
  0.00000000E+00  0.00000000E+00  0.00000000E+00
  0.00000000E+00  0.00000000E+00  0.00000000E+00
  0.00000000E+00  0.00000000E+00  0.00000000E+00
  0.00000000E+00  0.00000000E+00  0.00000000E+00
  0.00000000E+00  0.00000000E+00  0.00000000E+00
  0.00000000E+00  0.00000000E+00  0.00000000E+00
  0.00000000E+00  0.00000000E+00  0.00000000E+00
