Na18  La12  I54                         
   1.2000000000000000     
    11.6366321970903002    0.0198349126579366    0.0122406191131210
    -5.8045819173022517   10.1195570030949327   -0.0154727603989953
     0.0195961635503758   -0.0208841621267841   18.7442969514600861
  Na              La              I             
    18    12    54
Direct
  0.9846921537678117  0.6485441187562934  0.7848716788613720
  0.3193363186559773  0.9939361891602256  0.6112877543981576
  0.3314312407347846  0.9955831692746925  0.0957530591626344
  0.6565523742627180  0.6664364240102093  0.0947318623337784
  0.3137644058399669  0.3431494171230107  0.1056750646215842
  0.6507967668184121  0.0120611032262669  0.7735624261851130
  0.3381804193414595  0.0190870836798537  0.2843728128302320
  0.0071896205801606  0.3189158290127732  0.6115784361423696
  0.6682072458869240  0.9959386734857866  0.1080786576536137
  0.6622185804408628  0.6897765195135943  0.6139914729688416
  0.3488749093513724  0.3379226223552305  0.7747513925877115
  0.9929720539186691  0.6693468033779314  0.5981539103792072
  0.0089559063812036  0.6613002245361161  0.1066139647044737
  0.0077644014590607  0.3400074672880209  0.9381935278361493
  0.6749983220190893  0.0088101455558598  0.4435922979409549
  0.3265487630189076  0.3257775932572409  0.4445873289012613
  0.6705182767815884  0.6547026515315484  0.2826488522874928
  0.9828714306000859  0.3311142302116136  0.2767245143765026
  0.9974190032336893  0.9927008475547596  0.9544449583339831
  0.9985364746638105  0.9916496300901160  0.4536337688814396
  0.9968526186502952  0.9992370835818449  0.2563838805636207
  0.9961452060030601  0.9995248278557457  0.7613435519044937
  0.6663862346414998  0.3369864439800215  0.1237826762091761
  0.3243063721785356  0.6691878629142883  0.4548877380521874
  0.6630917376531106  0.3293876988633717  0.6231184333221972
  0.3365519676774097  0.6734333831043317  0.9509698764495733
  0.6717542345764816  0.3454555656688040  0.4269644841766783
  0.3281302396442287  0.6683309983339680  0.7560305472601535
  0.6512680983723217  0.3251304442121936  0.9257977913564928
  0.3307148722375596  0.6669040609716930  0.2593316382450821
  0.1956183592007805  0.0964429089093405  0.8573135542455409
  0.8930600177016546  0.7963295890409741  0.8561580446203579
  0.8935202412654060  0.0981669796505934  0.8601924780113740
  0.0982363968732652  0.8988222937980855  0.3511063827164794
  0.7963445889949243  0.8976478892347451  0.3548371271295596
  0.0949625018636371  0.1974248025030088  0.3553501477681844
  0.7670070762220437  0.5342503329507282  0.0273483451212385
  0.4338031338620309  0.8718943365859487  0.3563850533511200
  0.7603633050889465  0.2313739811019850  0.0277407730757032
  0.4309775352463251  0.5677379598368205  0.3577943442192426
  0.4572864296150584  0.2373360068440149  0.0308266205651317
  0.1310183310507071  0.5726313641745510  0.3542314830228179
  0.8695938372897408  0.4306416817122499  0.5275316762950545
  0.5287307336985315  0.7701056638004233  0.8506189701294302
  0.5631361192046461  0.1352003111364503  0.5221266675301087
  0.2344465781020217  0.4662797191306804  0.8544194299208026
  0.5659168933018129  0.4379889270656050  0.5263082607109937
  0.2232479506876988  0.7608696300658364  0.8542445386899058
  0.1009051940515933  0.2184956551887887  0.0202815641482632
  0.1049144258609525  0.8785094998615175  0.0251074301925076
  0.7725374356499503  0.8887745520456682  0.0224995553519047
  0.8743635155006357  0.7750044529562412  0.5247855056768350
  0.8918543107080333  0.1094369972568278  0.5204736126503892
  0.2194004928622510  0.1089648661875188  0.5220205330426925
  0.8766461027811558  0.7730047021860481  0.1885274242168168
  0.8887675231975279  0.1173099470794930  0.1920433584134818
  0.2248446133629516  0.1102111210432914  0.1884857121559383
  0.1241666095546797  0.2232682763192941  0.6955402000898607
  0.0971545428280714  0.8707423730978732  0.6945600845722320
  0.7715430046958122  0.9046293656808523  0.6960534721108699
  0.5468545630223917  0.4520250334172233  0.1857854599057466
  0.2145545259888300  0.7848370217375512  0.5208897541129354
  0.8856235022604744  0.4542750210141909  0.1937912113054695
  0.5523249691231895  0.7860800192366219  0.5173368745696133
  0.5468277291481207  0.1060229748734323  0.1878154157134961
  0.2200620405948602  0.4435985424694645  0.5185936864400070
  0.7859062539891930  0.2298275080328556  0.6898256269636652
  0.4367604657531285  0.5512631073352345  0.0207515892262056
  0.4412264205903618  0.2111131232139019  0.6900739452851673
  0.1147242720130069  0.5536246206821253  0.0209204627212152
  0.7757497888423115  0.5617686968596651  0.6855408676190661
  0.4496989696471183  0.8878284885661877  0.0265918505959319
  0.7643795525691051  0.2151487819794013  0.3579511899000622
  0.4347654773550175  0.5504261663340430  0.6876635246383180
  0.4490685482269163  0.2442857908184498  0.3572828603848105
  0.0981384866671499  0.5558504981118323  0.6880797986700413
  0.7896619569639642  0.5623278557708222  0.3604651520490048
  0.4414357222821618  0.8877644088486715  0.6861530155978756
  0.5558075522613100  0.4468630392146514  0.8589260121668326
  0.2284906113121057  0.7947418224729141  0.1948282207491050
  0.8791103392431420  0.4290928828408919  0.8618289920647096
  0.5624931872923540  0.7730986087708005  0.1964779669601457
  0.5428906833143892  0.1048012395581626  0.8626504110067650
  0.2052054878254768  0.4431784569080984  0.1950463146825291

  0.00000000E+00  0.00000000E+00  0.00000000E+00
  0.00000000E+00  0.00000000E+00  0.00000000E+00
  0.00000000E+00  0.00000000E+00  0.00000000E+00
  0.00000000E+00  0.00000000E+00  0.00000000E+00
  0.00000000E+00  0.00000000E+00  0.00000000E+00
  0.00000000E+00  0.00000000E+00  0.00000000E+00
  0.00000000E+00  0.00000000E+00  0.00000000E+00
  0.00000000E+00  0.00000000E+00  0.00000000E+00
  0.00000000E+00  0.00000000E+00  0.00000000E+00
  0.00000000E+00  0.00000000E+00  0.00000000E+00
  0.00000000E+00  0.00000000E+00  0.00000000E+00
  0.00000000E+00  0.00000000E+00  0.00000000E+00
  0.00000000E+00  0.00000000E+00  0.00000000E+00
  0.00000000E+00  0.00000000E+00  0.00000000E+00
  0.00000000E+00  0.00000000E+00  0.00000000E+00
  0.00000000E+00  0.00000000E+00  0.00000000E+00
  0.00000000E+00  0.00000000E+00  0.00000000E+00
  0.00000000E+00  0.00000000E+00  0.00000000E+00
  0.00000000E+00  0.00000000E+00  0.00000000E+00
  0.00000000E+00  0.00000000E+00  0.00000000E+00
  0.00000000E+00  0.00000000E+00  0.00000000E+00
  0.00000000E+00  0.00000000E+00  0.00000000E+00
  0.00000000E+00  0.00000000E+00  0.00000000E+00
  0.00000000E+00  0.00000000E+00  0.00000000E+00
  0.00000000E+00  0.00000000E+00  0.00000000E+00
  0.00000000E+00  0.00000000E+00  0.00000000E+00
  0.00000000E+00  0.00000000E+00  0.00000000E+00
  0.00000000E+00  0.00000000E+00  0.00000000E+00
  0.00000000E+00  0.00000000E+00  0.00000000E+00
  0.00000000E+00  0.00000000E+00  0.00000000E+00
  0.00000000E+00  0.00000000E+00  0.00000000E+00
  0.00000000E+00  0.00000000E+00  0.00000000E+00
  0.00000000E+00  0.00000000E+00  0.00000000E+00
  0.00000000E+00  0.00000000E+00  0.00000000E+00
  0.00000000E+00  0.00000000E+00  0.00000000E+00
  0.00000000E+00  0.00000000E+00  0.00000000E+00
  0.00000000E+00  0.00000000E+00  0.00000000E+00
  0.00000000E+00  0.00000000E+00  0.00000000E+00
  0.00000000E+00  0.00000000E+00  0.00000000E+00
  0.00000000E+00  0.00000000E+00  0.00000000E+00
  0.00000000E+00  0.00000000E+00  0.00000000E+00
  0.00000000E+00  0.00000000E+00  0.00000000E+00
  0.00000000E+00  0.00000000E+00  0.00000000E+00
  0.00000000E+00  0.00000000E+00  0.00000000E+00
  0.00000000E+00  0.00000000E+00  0.00000000E+00
  0.00000000E+00  0.00000000E+00  0.00000000E+00
  0.00000000E+00  0.00000000E+00  0.00000000E+00
  0.00000000E+00  0.00000000E+00  0.00000000E+00
  0.00000000E+00  0.00000000E+00  0.00000000E+00
  0.00000000E+00  0.00000000E+00  0.00000000E+00
  0.00000000E+00  0.00000000E+00  0.00000000E+00
  0.00000000E+00  0.00000000E+00  0.00000000E+00
  0.00000000E+00  0.00000000E+00  0.00000000E+00
  0.00000000E+00  0.00000000E+00  0.00000000E+00
  0.00000000E+00  0.00000000E+00  0.00000000E+00
  0.00000000E+00  0.00000000E+00  0.00000000E+00
  0.00000000E+00  0.00000000E+00  0.00000000E+00
  0.00000000E+00  0.00000000E+00  0.00000000E+00
  0.00000000E+00  0.00000000E+00  0.00000000E+00
  0.00000000E+00  0.00000000E+00  0.00000000E+00
  0.00000000E+00  0.00000000E+00  0.00000000E+00
  0.00000000E+00  0.00000000E+00  0.00000000E+00
  0.00000000E+00  0.00000000E+00  0.00000000E+00
  0.00000000E+00  0.00000000E+00  0.00000000E+00
  0.00000000E+00  0.00000000E+00  0.00000000E+00
  0.00000000E+00  0.00000000E+00  0.00000000E+00
  0.00000000E+00  0.00000000E+00  0.00000000E+00
  0.00000000E+00  0.00000000E+00  0.00000000E+00
  0.00000000E+00  0.00000000E+00  0.00000000E+00
  0.00000000E+00  0.00000000E+00  0.00000000E+00
  0.00000000E+00  0.00000000E+00  0.00000000E+00
  0.00000000E+00  0.00000000E+00  0.00000000E+00
  0.00000000E+00  0.00000000E+00  0.00000000E+00
  0.00000000E+00  0.00000000E+00  0.00000000E+00
  0.00000000E+00  0.00000000E+00  0.00000000E+00
  0.00000000E+00  0.00000000E+00  0.00000000E+00
  0.00000000E+00  0.00000000E+00  0.00000000E+00
  0.00000000E+00  0.00000000E+00  0.00000000E+00
  0.00000000E+00  0.00000000E+00  0.00000000E+00
  0.00000000E+00  0.00000000E+00  0.00000000E+00
  0.00000000E+00  0.00000000E+00  0.00000000E+00
  0.00000000E+00  0.00000000E+00  0.00000000E+00
  0.00000000E+00  0.00000000E+00  0.00000000E+00
  0.00000000E+00  0.00000000E+00  0.00000000E+00
