Na9  La3  I18                           
   1.2000000000000000     
     3.3876875619815991   -5.8676468448841295    0.0000000000000000
     3.3876874471144656    5.8676469112026988    0.0000000000000000
     0.0000000000000000   -0.0000000000000000   18.7044017560351676
  Na              La              I             
     9     3    18
Direct
  0.6666666666666643  0.3333333333333357  0.1488145902072660
  0.3333333333333357  0.6666666666666643  0.1666666666666643
  0.0000000000000000  0.0000000000000000  0.1845187431260698
  0.3333333333333357  0.6666666666666643  0.4821479235406017
  0.0000000000000000  0.0000000000000000  0.5000000000000000
  0.6666666666666643  0.3333333333333357  0.5178520764593983
  0.0000000000000000  0.0000000000000000  0.8154812568739302
  0.6666666666666643  0.3333333333333357  0.8333333333333357
  0.3333333333333357  0.6666666666666643  0.8511854097927340
  0.0000000000000000  0.0000000000000000  0.0000000000000000
  0.6666666666666643  0.3333333333333357  0.3333333333333357
  0.3333333333333357  0.6666666666666643  0.6666666666666643
  0.9847563929529173  0.3475155938152739  0.2472804841636602
  0.6524844061847190  0.6372407991376434  0.2472804841636602
  0.3627592008623566  0.0152436070470827  0.2472804841636602
  0.3039074658043077  0.3180897262862530  0.0860528491696755
  0.0141822604819382  0.6960925341956923  0.0860528491696755
  0.6819102737137470  0.9858177395180618  0.0860528491696755
  0.6514230596195816  0.6808489271486096  0.5806138174969959
  0.3191510728513904  0.9705741324709720  0.5806138174969959
  0.0294258675290280  0.3485769403804184  0.5806138174969959
  0.9705741324709720  0.6514230596195816  0.4193861825030041
  0.6808489271486096  0.0294258675290280  0.4193861825030041
  0.3485769403804184  0.3191510728513904  0.4193861825030041
  0.3180897262862530  0.0141822604819382  0.9139471508303245
  0.9858177395180618  0.3039074658043077  0.9139471508303245
  0.6960925341956923  0.6819102737137470  0.9139471508303245
  0.6372407991376434  0.9847563929529173  0.7527195158363398
  0.3475155938152739  0.3627592008623566  0.7527195158363398
  0.0152436070470827  0.6524844061847190  0.7527195158363398

  0.00000000E+00  0.00000000E+00  0.00000000E+00
  0.00000000E+00  0.00000000E+00  0.00000000E+00
  0.00000000E+00  0.00000000E+00  0.00000000E+00
  0.00000000E+00  0.00000000E+00  0.00000000E+00
  0.00000000E+00  0.00000000E+00  0.00000000E+00
  0.00000000E+00  0.00000000E+00  0.00000000E+00
  0.00000000E+00  0.00000000E+00  0.00000000E+00
  0.00000000E+00  0.00000000E+00  0.00000000E+00
  0.00000000E+00  0.00000000E+00  0.00000000E+00
  0.00000000E+00  0.00000000E+00  0.00000000E+00
  0.00000000E+00  0.00000000E+00  0.00000000E+00
  0.00000000E+00  0.00000000E+00  0.00000000E+00
  0.00000000E+00  0.00000000E+00  0.00000000E+00
  0.00000000E+00  0.00000000E+00  0.00000000E+00
  0.00000000E+00  0.00000000E+00  0.00000000E+00
  0.00000000E+00  0.00000000E+00  0.00000000E+00
  0.00000000E+00  0.00000000E+00  0.00000000E+00
  0.00000000E+00  0.00000000E+00  0.00000000E+00
  0.00000000E+00  0.00000000E+00  0.00000000E+00
  0.00000000E+00  0.00000000E+00  0.00000000E+00
  0.00000000E+00  0.00000000E+00  0.00000000E+00
  0.00000000E+00  0.00000000E+00  0.00000000E+00
  0.00000000E+00  0.00000000E+00  0.00000000E+00
  0.00000000E+00  0.00000000E+00  0.00000000E+00
  0.00000000E+00  0.00000000E+00  0.00000000E+00
  0.00000000E+00  0.00000000E+00  0.00000000E+00
  0.00000000E+00  0.00000000E+00  0.00000000E+00
  0.00000000E+00  0.00000000E+00  0.00000000E+00
  0.00000000E+00  0.00000000E+00  0.00000000E+00
  0.00000000E+00  0.00000000E+00  0.00000000E+00
