Na2  La4  I12                           
   1.1000000000000001     
     3.6682261238063401   -6.3535540200840233    0.0000000000000000
     3.6682261238063401    6.3535540200840233    0.0000000000000000
     0.0000000000000000    0.0000000000000000   13.9124994654152694
  Na              La              I             
     2     4    12
Direct
  0.3333333333333357  0.6666666666666643  0.8739886555483167
  0.6666666666666643  0.3333333333333357  0.3739886555483167
  0.0000000000000000  0.0000000000000000  0.1256601247642237
  0.0000000000000000  0.0000000000000000  0.6256601247642237
  0.0000000000000000  0.0000000000000000  0.3758014988524891
  0.0000000000000000  0.0000000000000000  0.8758014988524891
  0.0100956771178673  0.6837911261737588  0.0002448755473736
  0.3245970772749089  0.0064496887415970  0.2511813647309538
  0.9935503112584030  0.3181473885333190  0.2511813647309538
  0.3162088738262412  0.3263045509441014  0.0002448755473736
  0.3263045509441014  0.3162088738262412  0.5002448755473736
  0.6736954490558986  0.9899043228821327  0.0002448755473736
  0.3181473885333190  0.9935503112584030  0.7511813647309538
  0.6818526114666810  0.6754029227250911  0.2511813647309538
  0.6754029227250911  0.6818526114666810  0.7511813647309538
  0.9899043228821327  0.6736954490558986  0.5002448755473736
  0.6837911261737588  0.0100956771178673  0.5002448755473736
  0.0064496887415970  0.3245970772749089  0.7511813647309538

  0.00000000E+00  0.00000000E+00  0.00000000E+00
  0.00000000E+00  0.00000000E+00  0.00000000E+00
  0.00000000E+00  0.00000000E+00  0.00000000E+00
  0.00000000E+00  0.00000000E+00  0.00000000E+00
  0.00000000E+00  0.00000000E+00  0.00000000E+00
  0.00000000E+00  0.00000000E+00  0.00000000E+00
  0.00000000E+00  0.00000000E+00  0.00000000E+00
  0.00000000E+00  0.00000000E+00  0.00000000E+00
  0.00000000E+00  0.00000000E+00  0.00000000E+00
  0.00000000E+00  0.00000000E+00  0.00000000E+00
  0.00000000E+00  0.00000000E+00  0.00000000E+00
  0.00000000E+00  0.00000000E+00  0.00000000E+00
  0.00000000E+00  0.00000000E+00  0.00000000E+00
  0.00000000E+00  0.00000000E+00  0.00000000E+00
  0.00000000E+00  0.00000000E+00  0.00000000E+00
  0.00000000E+00  0.00000000E+00  0.00000000E+00
  0.00000000E+00  0.00000000E+00  0.00000000E+00
  0.00000000E+00  0.00000000E+00  0.00000000E+00
