Na12  La4  I24                          
   1.2000000000000000     
     6.6271532144593381    0.0000000000000000   -1.1817360424443177
     0.0000000000000000   11.5421575351199763    0.0000000000000000
     0.0193323066270677    0.0000000000000000   12.8834714292106973
  Na              La              I             
    12     4    24
Direct
  0.2524557088474211  0.0829015517601874  0.9999385561549943
  0.5000000000000000  0.9187213763023863  0.2500000000000000
  0.7475442911525789  0.0829015517601874  0.5000614438450057
  0.2524557088474211  0.9170984482398126  0.4999385561549943
  0.5000000000000000  0.0812786236976137  0.7500000000000000
  0.7475442911525789  0.9170984482398126  0.0000614438450057
  0.7524557088474211  0.5829015517601874  0.9999385561549943
  0.0000000000000000  0.4187213763023863  0.2500000000000000
  0.2475442911525789  0.5829015517601874  0.5000614438450057
  0.7524557088474211  0.4170984482398126  0.4999385561549943
  0.0000000000000000  0.5812786236976137  0.7500000000000000
  0.2475442911525789  0.4170984482398126  0.0000614438450057
  0.7500000000000000  0.2500000000000000  0.0000000000000000
  0.7500000000000000  0.7500000000000000  0.5000000000000000
  0.2500000000000000  0.7500000000000000  0.0000000000000000
  0.2500000000000000  0.2500000000000000  0.5000000000000000
  0.6138872957490875  0.7534742182354464  0.1191866833633881
  0.1338210468291194  0.9148173880934394  0.1200952379656215
  0.6267190627098245  0.0864224158265969  0.1199636730515294
  0.3732799372901709  0.0864224158265969  0.3800363269484706
  0.8661789531708735  0.9148173880934394  0.3799047620343785
  0.3861117042509079  0.7534742182354464  0.3808133166366119
  0.6138872957490875  0.2465257817645536  0.6191866833633881
  0.6267190627098245  0.9135775841734031  0.6199636730515294
  0.1338210468291194  0.0851826119065606  0.6200952379656215
  0.3732799372901709  0.9135775841734031  0.8800363269484706
  0.8661789531708735  0.0851826119065606  0.8799047620343785
  0.3861117042509079  0.2465257817645536  0.8808133166366119
  0.1138872957490875  0.2534752182354509  0.1191866833633881
  0.6338210468291265  0.4148173880934394  0.1200952379656215
  0.1267200627098291  0.5864224158265969  0.1199636730515294
  0.8732809372901755  0.5864224158265969  0.3800363269484706
  0.3661789531708806  0.4148173880934394  0.3799047620343785
  0.8861127042509125  0.2534752182354509  0.3808133166366119
  0.1138872957490875  0.7465257817645536  0.6191866833633881
  0.1267200627098291  0.4135785841734005  0.6199636730515294
  0.6338210468291265  0.5851826119065606  0.6200952379656215
  0.8732809372901755  0.4135785841734005  0.8800363269484706
  0.3661789531708806  0.5851826119065606  0.8799047620343785
  0.8861127042509125  0.7465257817645536  0.8808133166366119

  0.00000000E+00  0.00000000E+00  0.00000000E+00
  0.00000000E+00  0.00000000E+00  0.00000000E+00
  0.00000000E+00  0.00000000E+00  0.00000000E+00
  0.00000000E+00  0.00000000E+00  0.00000000E+00
  0.00000000E+00  0.00000000E+00  0.00000000E+00
  0.00000000E+00  0.00000000E+00  0.00000000E+00
  0.00000000E+00  0.00000000E+00  0.00000000E+00
  0.00000000E+00  0.00000000E+00  0.00000000E+00
  0.00000000E+00  0.00000000E+00  0.00000000E+00
  0.00000000E+00  0.00000000E+00  0.00000000E+00
  0.00000000E+00  0.00000000E+00  0.00000000E+00
  0.00000000E+00  0.00000000E+00  0.00000000E+00
  0.00000000E+00  0.00000000E+00  0.00000000E+00
  0.00000000E+00  0.00000000E+00  0.00000000E+00
  0.00000000E+00  0.00000000E+00  0.00000000E+00
  0.00000000E+00  0.00000000E+00  0.00000000E+00
  0.00000000E+00  0.00000000E+00  0.00000000E+00
  0.00000000E+00  0.00000000E+00  0.00000000E+00
  0.00000000E+00  0.00000000E+00  0.00000000E+00
  0.00000000E+00  0.00000000E+00  0.00000000E+00
  0.00000000E+00  0.00000000E+00  0.00000000E+00
  0.00000000E+00  0.00000000E+00  0.00000000E+00
  0.00000000E+00  0.00000000E+00  0.00000000E+00
  0.00000000E+00  0.00000000E+00  0.00000000E+00
  0.00000000E+00  0.00000000E+00  0.00000000E+00
  0.00000000E+00  0.00000000E+00  0.00000000E+00
  0.00000000E+00  0.00000000E+00  0.00000000E+00
  0.00000000E+00  0.00000000E+00  0.00000000E+00
  0.00000000E+00  0.00000000E+00  0.00000000E+00
  0.00000000E+00  0.00000000E+00  0.00000000E+00
  0.00000000E+00  0.00000000E+00  0.00000000E+00
  0.00000000E+00  0.00000000E+00  0.00000000E+00
  0.00000000E+00  0.00000000E+00  0.00000000E+00
  0.00000000E+00  0.00000000E+00  0.00000000E+00
  0.00000000E+00  0.00000000E+00  0.00000000E+00
  0.00000000E+00  0.00000000E+00  0.00000000E+00
  0.00000000E+00  0.00000000E+00  0.00000000E+00
  0.00000000E+00  0.00000000E+00  0.00000000E+00
  0.00000000E+00  0.00000000E+00  0.00000000E+00
  0.00000000E+00  0.00000000E+00  0.00000000E+00
