Na4  La1  I7                            
   1.6000000000000001     
     6.0785169067104494    0.0000000019878154    0.0000000000841371
     3.0392575161517112    5.2641500520579854   -0.0000000000939545
     3.0392581035542654    1.7547167544993021    4.9630884615299884
  Na              La              I             
     4     1     7
Direct
  0.3750765858139076  0.3750765858134812  0.3750765858140284
  0.3750765858140710  0.3750765858139857  0.8747722695579085
  0.3750765858143552  0.8747722695581643  0.3750765858139857
  0.8747722695576599  0.3750765858143552  0.3750765858140710
  0.0000000000000000  0.0000000000000000  0.0000000000000000
  0.2330962997753829  0.2330962997765482  0.7669037152248066
  0.2330962997747150  0.7669037152254745  0.2330962997752906
  0.7669037152256664  0.2330962997756885  0.2330962997750916
  0.7669037152246219  0.7669037152234566  0.2330962997751982
  0.2500000000000000  0.2500000000000000  0.2500000000000000
  0.2330962997743384  0.7669037152243163  0.7669037152249132
  0.7669037152252898  0.2330962997745303  0.7669037152247142

  0.00000000E+00  0.00000000E+00  0.00000000E+00
  0.00000000E+00  0.00000000E+00  0.00000000E+00
  0.00000000E+00  0.00000000E+00  0.00000000E+00
  0.00000000E+00  0.00000000E+00  0.00000000E+00
  0.00000000E+00  0.00000000E+00  0.00000000E+00
  0.00000000E+00  0.00000000E+00  0.00000000E+00
  0.00000000E+00  0.00000000E+00  0.00000000E+00
  0.00000000E+00  0.00000000E+00  0.00000000E+00
  0.00000000E+00  0.00000000E+00  0.00000000E+00
  0.00000000E+00  0.00000000E+00  0.00000000E+00
  0.00000000E+00  0.00000000E+00  0.00000000E+00
  0.00000000E+00  0.00000000E+00  0.00000000E+00
