Na8  La4  I20                           
   1.4500000000000000     
     6.5167555934593304   -0.0000000000000001    0.0000000000000004
     0.0000000000000011    6.5734719539739279    0.0000000000000003
     0.0000000000000000    0.0000000000000000   10.2708865576745314
  Na              La              I             
     8     4    20
Direct
  0.8939759645526095  0.4698938035776550  0.2761640935823237
  0.1060240354473905  0.9698938035776550  0.7238359064176763
  0.6060240354473905  0.4698938035776550  0.7761640935823237
  0.3939759645526095  0.9698938035776550  0.2238359064176763
  0.8939759645526095  0.0301061964223450  0.2761640935823237
  0.1060240354473905  0.5301061964223450  0.7238359064176763
  0.6060240354473905  0.0301061964223450  0.7761640935823237
  0.3939759645526095  0.5301061964223450  0.2238359064176763
  0.9288675565669706  0.2500000000000000  0.9802127752643770
  0.0711324434330365  0.7500000000000000  0.0197872247356230
  0.5711324434330294  0.2500000000000000  0.4802127752643770
  0.4288675565669635  0.7500000000000000  0.5197872247356230
  0.8129260072739228  0.5368825946631759  0.0704631201722350
  0.1870739927260772  0.0368825946631688  0.9295368798277650
  0.6870739927260772  0.5368825946631759  0.5704631201722350
  0.3129260072739228  0.0368825946631688  0.4295368798277650
  0.8129260072739228  0.9631174053368241  0.0704631201722350
  0.1870739927260772  0.4631174053368312  0.9295368798277650
  0.6870739927260772  0.9631174053368241  0.5704631201722350
  0.3129260072739228  0.4631174053368312  0.4295368798277650
  0.6073084984177939  0.7500000000000000  0.3272318152042217
  0.3926915015822061  0.2500000000000000  0.6727681847957783
  0.8926915015822061  0.7500000000000000  0.8272318152042217
  0.1073084984177939  0.2500000000000000  0.1727681847957783
  0.0968319946727831  0.7500000000000000  0.5646574312793646
  0.9031680053272240  0.2500000000000000  0.4353425687206354
  0.4031680053272240  0.7500000000000000  0.0646574312793646
  0.5968319946727760  0.2500000000000000  0.9353425687206354
  0.0861608200848423  0.7500000000000000  0.2427379321708614
  0.9138391799151577  0.2500000000000000  0.7572620678291386
  0.4138391799151577  0.7500000000000000  0.7427379321708614
  0.5861608200848423  0.2500000000000000  0.2572620678291386

  0.00000000E+00  0.00000000E+00  0.00000000E+00
  0.00000000E+00  0.00000000E+00  0.00000000E+00
  0.00000000E+00  0.00000000E+00  0.00000000E+00
  0.00000000E+00  0.00000000E+00  0.00000000E+00
  0.00000000E+00  0.00000000E+00  0.00000000E+00
  0.00000000E+00  0.00000000E+00  0.00000000E+00
  0.00000000E+00  0.00000000E+00  0.00000000E+00
  0.00000000E+00  0.00000000E+00  0.00000000E+00
  0.00000000E+00  0.00000000E+00  0.00000000E+00
  0.00000000E+00  0.00000000E+00  0.00000000E+00
  0.00000000E+00  0.00000000E+00  0.00000000E+00
  0.00000000E+00  0.00000000E+00  0.00000000E+00
  0.00000000E+00  0.00000000E+00  0.00000000E+00
  0.00000000E+00  0.00000000E+00  0.00000000E+00
  0.00000000E+00  0.00000000E+00  0.00000000E+00
  0.00000000E+00  0.00000000E+00  0.00000000E+00
  0.00000000E+00  0.00000000E+00  0.00000000E+00
  0.00000000E+00  0.00000000E+00  0.00000000E+00
  0.00000000E+00  0.00000000E+00  0.00000000E+00
  0.00000000E+00  0.00000000E+00  0.00000000E+00
  0.00000000E+00  0.00000000E+00  0.00000000E+00
  0.00000000E+00  0.00000000E+00  0.00000000E+00
  0.00000000E+00  0.00000000E+00  0.00000000E+00
  0.00000000E+00  0.00000000E+00  0.00000000E+00
  0.00000000E+00  0.00000000E+00  0.00000000E+00
  0.00000000E+00  0.00000000E+00  0.00000000E+00
  0.00000000E+00  0.00000000E+00  0.00000000E+00
  0.00000000E+00  0.00000000E+00  0.00000000E+00
  0.00000000E+00  0.00000000E+00  0.00000000E+00
  0.00000000E+00  0.00000000E+00  0.00000000E+00
  0.00000000E+00  0.00000000E+00  0.00000000E+00
  0.00000000E+00  0.00000000E+00  0.00000000E+00
