Na2  La6  I20                           
   1.4500000000000000     
     5.7032223969294318    0.0000000000000000    0.0000000000000003
     0.0000000000000009    5.7032223969294318    0.0000000000000003
     0.0000000000000000    0.0000000000000000   10.8821245077291131
  Na              La              I             
     2     6    20
Direct
  0.5000000000000000  0.5000000000000000  0.0000000000000000
  0.5000000000000000  0.5000000000000000  0.5000000000000000
  0.0000000000000000  0.0000000000000000  0.0000000000000000
  0.0000000000000000  0.5000000000000000  0.7843942752336304
  0.0000000000000000  0.0000000000000000  0.5000000000000000
  0.0000000000000000  0.5000000000000000  0.2156057247663696
  0.5000000000000000  0.0000000000000000  0.7156057247663696
  0.5000000000000000  0.0000000000000000  0.2843942752336304
  0.0000000000000000  0.5000000000000000  0.0000000000000000
  0.2456351951037732  0.2173029444710437  0.8711981471641010
  0.2173029444710437  0.2456351951037732  0.3711981471641081
  0.2456351951037732  0.2173029444710437  0.1288018528358990
  0.2456351951037732  0.7826970555289563  0.8711981471641010
  0.2173029444710437  0.2456351951037732  0.6288018528358990
  0.2173029444710437  0.7543648048962268  0.3711981471641081
  0.2456351951037732  0.7826970555289563  0.1288018528358990
  0.2173029444710437  0.7543648048962268  0.6288018528358990
  0.5000000000000000  0.5000000000000000  0.7500000000000000
  0.5000000000000000  0.0000000000000000  0.5000000000000000
  0.5000000000000000  0.5000000000000000  0.2500000000000000
  0.7826970555289563  0.2456351951037732  0.3711981471641081
  0.7543648048962268  0.2173029444710437  0.8711981471641010
  0.7543648048962268  0.2173029444710437  0.1288018528358990
  0.7543648048962268  0.7826970555289563  0.8711981471641010
  0.7543648048962268  0.7826970555289563  0.1288018528358990
  0.7826970555289563  0.7543648048962268  0.3711981471641081
  0.7826970555289563  0.2456351951037732  0.6288018528358990
  0.7826970555289563  0.7543648048962268  0.6288018528358990

  0.00000000E+00  0.00000000E+00  0.00000000E+00
  0.00000000E+00  0.00000000E+00  0.00000000E+00
  0.00000000E+00  0.00000000E+00  0.00000000E+00
  0.00000000E+00  0.00000000E+00  0.00000000E+00
  0.00000000E+00  0.00000000E+00  0.00000000E+00
  0.00000000E+00  0.00000000E+00  0.00000000E+00
  0.00000000E+00  0.00000000E+00  0.00000000E+00
  0.00000000E+00  0.00000000E+00  0.00000000E+00
  0.00000000E+00  0.00000000E+00  0.00000000E+00
  0.00000000E+00  0.00000000E+00  0.00000000E+00
  0.00000000E+00  0.00000000E+00  0.00000000E+00
  0.00000000E+00  0.00000000E+00  0.00000000E+00
  0.00000000E+00  0.00000000E+00  0.00000000E+00
  0.00000000E+00  0.00000000E+00  0.00000000E+00
  0.00000000E+00  0.00000000E+00  0.00000000E+00
  0.00000000E+00  0.00000000E+00  0.00000000E+00
  0.00000000E+00  0.00000000E+00  0.00000000E+00
  0.00000000E+00  0.00000000E+00  0.00000000E+00
  0.00000000E+00  0.00000000E+00  0.00000000E+00
  0.00000000E+00  0.00000000E+00  0.00000000E+00
  0.00000000E+00  0.00000000E+00  0.00000000E+00
  0.00000000E+00  0.00000000E+00  0.00000000E+00
  0.00000000E+00  0.00000000E+00  0.00000000E+00
  0.00000000E+00  0.00000000E+00  0.00000000E+00
  0.00000000E+00  0.00000000E+00  0.00000000E+00
  0.00000000E+00  0.00000000E+00  0.00000000E+00
  0.00000000E+00  0.00000000E+00  0.00000000E+00
  0.00000000E+00  0.00000000E+00  0.00000000E+00
