Na6  La2  I12                           
   1.6000000000000001     
     4.8889674515833557   -0.0000000000000000    0.0000000000000003
     0.0000000000000008    4.8889674515833557    0.0000000000000003
    -0.0000000000000000   -0.0000000000000000    8.7145295204362530
  Na              La              I             
     6     2    12
Direct
  0.5000000000000000  0.0000000000000000  0.0917384408398405
  0.0000000000000000  0.0000000000000000  0.5000000000000000
  0.0000000000000000  0.5000000000000000  0.9082615591601595
  0.5000000000000000  0.5000000000000000  0.0000000000000000
  0.0000000000000000  0.5000000000000000  0.5917384408398405
  0.5000000000000000  0.0000000000000000  0.4082615591601595
  0.5000000000000000  0.0000000000000000  0.7500000000000000
  0.0000000000000000  0.5000000000000000  0.2500000000000000
  0.2971485000556839  0.8056561239842281  0.9170362733001838
  0.3056561239842281  0.7971485000556839  0.5829637266998162
  0.2868819166181424  0.7868819166181353  0.2500000000000000
  0.7868819166181353  0.7131180833818647  0.7500000000000000
  0.8056561239842281  0.7028514999443161  0.0829637266998162
  0.7971485000556839  0.6943438760157719  0.4170362733001838
  0.1943438760157719  0.2971485000556839  0.0829637266998162
  0.2028514999443161  0.3056561239842281  0.4170362733001838
  0.2131180833818647  0.2868819166181424  0.7500000000000000
  0.7131180833818647  0.2131180833818647  0.2500000000000000
  0.7028514999443161  0.1943438760157719  0.9170362733001838
  0.6943438760157719  0.2028514999443161  0.5829637266998162

  0.00000000E+00  0.00000000E+00  0.00000000E+00
  0.00000000E+00  0.00000000E+00  0.00000000E+00
  0.00000000E+00  0.00000000E+00  0.00000000E+00
  0.00000000E+00  0.00000000E+00  0.00000000E+00
  0.00000000E+00  0.00000000E+00  0.00000000E+00
  0.00000000E+00  0.00000000E+00  0.00000000E+00
  0.00000000E+00  0.00000000E+00  0.00000000E+00
  0.00000000E+00  0.00000000E+00  0.00000000E+00
  0.00000000E+00  0.00000000E+00  0.00000000E+00
  0.00000000E+00  0.00000000E+00  0.00000000E+00
  0.00000000E+00  0.00000000E+00  0.00000000E+00
  0.00000000E+00  0.00000000E+00  0.00000000E+00
  0.00000000E+00  0.00000000E+00  0.00000000E+00
  0.00000000E+00  0.00000000E+00  0.00000000E+00
  0.00000000E+00  0.00000000E+00  0.00000000E+00
  0.00000000E+00  0.00000000E+00  0.00000000E+00
  0.00000000E+00  0.00000000E+00  0.00000000E+00
  0.00000000E+00  0.00000000E+00  0.00000000E+00
  0.00000000E+00  0.00000000E+00  0.00000000E+00
  0.00000000E+00  0.00000000E+00  0.00000000E+00
