Na4  La4  I16                           
   1.4500000000000000     
     5.4738606563730130    0.0000000000000000    0.0000000000000000
     0.0000000000000000    5.4738606563730130    0.0000000000000000
     0.0000000000000000    0.0000000000000000   10.8006888506702303
  Na              La              I             
     4     4    16
Direct
  0.5000000000000000  0.5000000000000000  0.0000000000000000
  0.5000000000000000  0.0000000000000000  0.2500000000000000
  0.0000000000000000  0.0000000000000000  0.5000000000000000
  0.0000000000000000  0.5000000000000000  0.7500000000000000
  0.0000000000000000  0.0000000000000000  0.0000000000000000
  0.0000000000000000  0.5000000000000000  0.2500000000000000
  0.5000000000000000  0.5000000000000000  0.5000000000000000
  0.5000000000000000  0.0000000000000000  0.7500000000000000
  0.7500000000000000  0.7387206433655749  0.3750000000000000
  0.2387206433655749  0.7500000000000000  0.1250000000000000
  0.7500000000000000  0.2612793566344251  0.3750000000000000
  0.2500000000000000  0.2612793566344251  0.3750000000000000
  0.2387206433655749  0.2500000000000000  0.1250000000000000
  0.2500000000000000  0.7387206433655749  0.3750000000000000
  0.7612793566344251  0.2500000000000000  0.1250000000000000
  0.7612793566344251  0.7500000000000000  0.1250000000000000
  0.2500000000000000  0.2387206433655749  0.8750000000000000
  0.7387206433655749  0.2500000000000000  0.6250000000000000
  0.2500000000000000  0.7612793566344251  0.8750000000000000
  0.7500000000000000  0.7612793566344251  0.8750000000000000
  0.7387206433655749  0.7500000000000000  0.6250000000000000
  0.7500000000000000  0.2387206433655749  0.8750000000000000
  0.2612793566344251  0.7500000000000000  0.6250000000000000
  0.2612793566344251  0.2500000000000000  0.6250000000000000

  0.00000000E+00  0.00000000E+00  0.00000000E+00
  0.00000000E+00  0.00000000E+00  0.00000000E+00
  0.00000000E+00  0.00000000E+00  0.00000000E+00
  0.00000000E+00  0.00000000E+00  0.00000000E+00
  0.00000000E+00  0.00000000E+00  0.00000000E+00
  0.00000000E+00  0.00000000E+00  0.00000000E+00
  0.00000000E+00  0.00000000E+00  0.00000000E+00
  0.00000000E+00  0.00000000E+00  0.00000000E+00
  0.00000000E+00  0.00000000E+00  0.00000000E+00
  0.00000000E+00  0.00000000E+00  0.00000000E+00
  0.00000000E+00  0.00000000E+00  0.00000000E+00
  0.00000000E+00  0.00000000E+00  0.00000000E+00
  0.00000000E+00  0.00000000E+00  0.00000000E+00
  0.00000000E+00  0.00000000E+00  0.00000000E+00
  0.00000000E+00  0.00000000E+00  0.00000000E+00
  0.00000000E+00  0.00000000E+00  0.00000000E+00
  0.00000000E+00  0.00000000E+00  0.00000000E+00
  0.00000000E+00  0.00000000E+00  0.00000000E+00
  0.00000000E+00  0.00000000E+00  0.00000000E+00
  0.00000000E+00  0.00000000E+00  0.00000000E+00
  0.00000000E+00  0.00000000E+00  0.00000000E+00
  0.00000000E+00  0.00000000E+00  0.00000000E+00
  0.00000000E+00  0.00000000E+00  0.00000000E+00
  0.00000000E+00  0.00000000E+00  0.00000000E+00
