Na3  La7  I24                           
   1.1499999999999999     
     3.9231245885822363   -6.7950514619744631    0.0000000000000000
     3.9231248753491386    6.7950512964095147   -0.0000000000000000
     0.0000000000000000   -0.0000000000000000   16.3776314525728353
  Na              La              I             
     3     7    24
Direct
  0.0000000000000000  0.0000000000000000  0.5000000000000000
  0.6666669999999968  0.3333330000000032  0.3286051992560672
  0.6666669999999968  0.3333330000000032  0.6713948007439328
  0.0000000000000000  0.0000000000000000  0.7502218998215895
  0.0000000000000000  0.0000000000000000  0.0000000000000000
  0.0000000000000000  0.0000000000000000  0.2497781001784105
  0.3333330000000032  0.6666669999999968  0.8771840734342504
  0.3333330000000032  0.6666669999999968  0.1228159265657496
  0.3333330000000032  0.6666669999999968  0.3781705566114866
  0.3333330000000032  0.6666669999999968  0.6218294433885134
  0.9671890660766849  0.2419072180295387  0.8764639264239591
  0.9671890660766849  0.2419072180295387  0.1235360735760409
  0.9674271677831712  0.2478489923532123  0.3693703547859855
  0.9674271677831712  0.2478489923532123  0.6306296452140145
  0.7580927819705821  0.7252818480474019  0.8764639264239591
  0.7580927819705821  0.7252818480474019  0.1235360735760409
  0.7521510076467166  0.7195781754299730  0.3693703547859855
  0.7521510076467166  0.7195781754299730  0.6306296452140145
  0.0578800235699291  0.6341459997264991  0.7531403035291504
  0.0569893766146521  0.6314936597409897  0.0000000000000000
  0.0578800235699291  0.6341459997264991  0.2468596964708496
  0.0586341572670790  0.6255634047229748  0.5000000000000000
  0.2747181519527189  0.0328109339230664  0.8764639264239591
  0.2747181519527189  0.0328109339230664  0.1235360735760409
  0.2804218245701051  0.0325728322168146  0.3693703547859855
  0.2804218245701051  0.0325728322168146  0.6306296452140145
  0.5762659761563498  0.9421199764300354  0.7531403035291504
  0.5745032831260701  0.9430106233852342  0.0000000000000000
  0.5762659761563498  0.9421199764300354  0.2468596964708496
  0.5669292474556116  0.9413658427329494  0.5000000000000000
  0.3658540002737425  0.4237340238434442  0.7531403035291504
  0.3685063402592803  0.4254967168737664  0.0000000000000000
  0.3658540002737425  0.4237340238434442  0.2468596964708496
  0.3744365952773094  0.4330707525440758  0.5000000000000000

  0.00000000E+00  0.00000000E+00  0.00000000E+00
  0.00000000E+00  0.00000000E+00  0.00000000E+00
  0.00000000E+00  0.00000000E+00  0.00000000E+00
  0.00000000E+00  0.00000000E+00  0.00000000E+00
  0.00000000E+00  0.00000000E+00  0.00000000E+00
  0.00000000E+00  0.00000000E+00  0.00000000E+00
  0.00000000E+00  0.00000000E+00  0.00000000E+00
  0.00000000E+00  0.00000000E+00  0.00000000E+00
  0.00000000E+00  0.00000000E+00  0.00000000E+00
  0.00000000E+00  0.00000000E+00  0.00000000E+00
  0.00000000E+00  0.00000000E+00  0.00000000E+00
  0.00000000E+00  0.00000000E+00  0.00000000E+00
  0.00000000E+00  0.00000000E+00  0.00000000E+00
  0.00000000E+00  0.00000000E+00  0.00000000E+00
  0.00000000E+00  0.00000000E+00  0.00000000E+00
  0.00000000E+00  0.00000000E+00  0.00000000E+00
  0.00000000E+00  0.00000000E+00  0.00000000E+00
  0.00000000E+00  0.00000000E+00  0.00000000E+00
  0.00000000E+00  0.00000000E+00  0.00000000E+00
  0.00000000E+00  0.00000000E+00  0.00000000E+00
  0.00000000E+00  0.00000000E+00  0.00000000E+00
  0.00000000E+00  0.00000000E+00  0.00000000E+00
  0.00000000E+00  0.00000000E+00  0.00000000E+00
  0.00000000E+00  0.00000000E+00  0.00000000E+00
  0.00000000E+00  0.00000000E+00  0.00000000E+00
  0.00000000E+00  0.00000000E+00  0.00000000E+00
  0.00000000E+00  0.00000000E+00  0.00000000E+00
  0.00000000E+00  0.00000000E+00  0.00000000E+00
  0.00000000E+00  0.00000000E+00  0.00000000E+00
  0.00000000E+00  0.00000000E+00  0.00000000E+00
  0.00000000E+00  0.00000000E+00  0.00000000E+00
  0.00000000E+00  0.00000000E+00  0.00000000E+00
  0.00000000E+00  0.00000000E+00  0.00000000E+00
  0.00000000E+00  0.00000000E+00  0.00000000E+00
