Na6  La2  I12                           
   1.2999999999999998     
     6.1602881703842991    0.0000000000000000   -0.0034656071713728
     0.0000000000000000   10.7969528763894829    0.0000000000000000
    -1.9626223374738401    0.0000000000000000    5.8801414516468666
  Na              La              I             
     6     2    12
Direct
  0.5000000000000000  0.3413168954348293  0.5000000000000000
  0.5000000000000000  0.9947705395272166  0.5000000000000000
  0.5000000000000000  0.8269526977336596  0.0000000000000000
  0.5000000000000000  0.1694397742360749  0.0000000000000000
  0.0000000000000000  0.3359806688252505  0.0000000000000000
  0.0000000000000000  0.6629933850122569  0.0000000000000000
  0.0000000000000000  0.9986451011497621  0.0000000000000000
  0.5000000000000000  0.5047115544803447  0.0000000000000000
  0.2416350816882868  0.8425695646319014  0.2427193233912703
  0.7583649183117060  0.8425695646319014  0.7572806766087297
  0.7558527413983711  0.1614805769885734  0.7538148016978568
  0.2441472586016289  0.1614805769885734  0.2461851983021432
  0.7325598955600796  0.3359126660113176  0.2387833369365424
  0.2674401044399204  0.3359126660113176  0.7612166630634576
  0.2547371803731409  0.6622692315795646  0.7705076566098796
  0.7452628196268591  0.6622692315795646  0.2294923433901204
  0.7457205318874500  0.0018547073894624  0.2327109925197846
  0.2542794681125500  0.0018547073894624  0.7672890074802154
  0.2503429176629197  0.4927579451995072  0.2406228820929854
  0.7496570823370803  0.4927579451995072  0.7593771179070146

  0.00000000E+00  0.00000000E+00  0.00000000E+00
  0.00000000E+00  0.00000000E+00  0.00000000E+00
  0.00000000E+00  0.00000000E+00  0.00000000E+00
  0.00000000E+00  0.00000000E+00  0.00000000E+00
  0.00000000E+00  0.00000000E+00  0.00000000E+00
  0.00000000E+00  0.00000000E+00  0.00000000E+00
  0.00000000E+00  0.00000000E+00  0.00000000E+00
  0.00000000E+00  0.00000000E+00  0.00000000E+00
  0.00000000E+00  0.00000000E+00  0.00000000E+00
  0.00000000E+00  0.00000000E+00  0.00000000E+00
  0.00000000E+00  0.00000000E+00  0.00000000E+00
  0.00000000E+00  0.00000000E+00  0.00000000E+00
  0.00000000E+00  0.00000000E+00  0.00000000E+00
  0.00000000E+00  0.00000000E+00  0.00000000E+00
  0.00000000E+00  0.00000000E+00  0.00000000E+00
  0.00000000E+00  0.00000000E+00  0.00000000E+00
  0.00000000E+00  0.00000000E+00  0.00000000E+00
  0.00000000E+00  0.00000000E+00  0.00000000E+00
  0.00000000E+00  0.00000000E+00  0.00000000E+00
  0.00000000E+00  0.00000000E+00  0.00000000E+00
