Na9  La3  I18                           
   1.1000000000000001     
     3.6923362590009203   -6.3953139696052732    0.0000000000000000
     3.6923362333552081    6.3953139844118319   -0.0000000000000000
     0.0000000000000000   -0.0000000000000000   20.1564418767659355
  Na              La              I             
     9     3    18
Direct
  0.6666666666666643  0.3333333333333357  0.0173694218496649
  0.3333333333333357  0.6666666666666643  0.1581608924278726
  0.0000000000000000  0.0000000000000000  0.1889807319569243
  0.3333333333333357  0.6666666666666643  0.3507027551829935
  0.0000000000000000  0.0000000000000000  0.4914942257612083
  0.6666666666666643  0.3333333333333357  0.5223140652902600
  0.0000000000000000  0.0000000000000000  0.6840360885163292
  0.6666666666666643  0.3333333333333357  0.8248275590945440
  0.3333333333333357  0.6666666666666643  0.8556473986235957
  0.6666666666666643  0.3333333333333357  0.3315228291798604
  0.3333333333333357  0.6666666666666643  0.6648561625131961
  0.0000000000000000  0.0000000000000000  0.9981894958465318
  0.3481976338251229  0.9886168349860114  0.2555963628233471
  0.0113831650139886  0.3595807988391186  0.2555963628233471
  0.6404192011608814  0.6518023661748771  0.2555963628233471
  0.9985608111954107  0.6923560642751596  0.0884371198163123
  0.6937952530797347  0.0014391888045893  0.0884371198163123
  0.3076439357248404  0.3062047469202653  0.0884371198163123
  0.0148643004917872  0.3219501683193400  0.5889296961566757
  0.6780498316806529  0.6929141321724472  0.5889296961566757
  0.3070858678275528  0.9851356995082128  0.5889296961566757
  0.6652274778620821  0.0256893976084882  0.4217704531496480
  0.3604619197464061  0.3347725221379179  0.4217704531496480
  0.9743106023915118  0.6395380802535939  0.4217704531496480
  0.6815309671584515  0.6552835016526757  0.9222630294900114
  0.3447164983473243  0.0262474655057829  0.9222630294900114
  0.9737525344942242  0.3184690328415485  0.9222630294900114
  0.3318941445287464  0.3590227309418239  0.7551037864829837
  0.0271285864130704  0.6681058554712536  0.7551037864829837
  0.6409772690581761  0.9728714135869296  0.7551037864829837

  0.00000000E+00  0.00000000E+00  0.00000000E+00
  0.00000000E+00  0.00000000E+00  0.00000000E+00
  0.00000000E+00  0.00000000E+00  0.00000000E+00
  0.00000000E+00  0.00000000E+00  0.00000000E+00
  0.00000000E+00  0.00000000E+00  0.00000000E+00
  0.00000000E+00  0.00000000E+00  0.00000000E+00
  0.00000000E+00  0.00000000E+00  0.00000000E+00
  0.00000000E+00  0.00000000E+00  0.00000000E+00
  0.00000000E+00  0.00000000E+00  0.00000000E+00
  0.00000000E+00  0.00000000E+00  0.00000000E+00
  0.00000000E+00  0.00000000E+00  0.00000000E+00
  0.00000000E+00  0.00000000E+00  0.00000000E+00
  0.00000000E+00  0.00000000E+00  0.00000000E+00
  0.00000000E+00  0.00000000E+00  0.00000000E+00
  0.00000000E+00  0.00000000E+00  0.00000000E+00
  0.00000000E+00  0.00000000E+00  0.00000000E+00
  0.00000000E+00  0.00000000E+00  0.00000000E+00
  0.00000000E+00  0.00000000E+00  0.00000000E+00
  0.00000000E+00  0.00000000E+00  0.00000000E+00
  0.00000000E+00  0.00000000E+00  0.00000000E+00
  0.00000000E+00  0.00000000E+00  0.00000000E+00
  0.00000000E+00  0.00000000E+00  0.00000000E+00
  0.00000000E+00  0.00000000E+00  0.00000000E+00
  0.00000000E+00  0.00000000E+00  0.00000000E+00
  0.00000000E+00  0.00000000E+00  0.00000000E+00
  0.00000000E+00  0.00000000E+00  0.00000000E+00
  0.00000000E+00  0.00000000E+00  0.00000000E+00
  0.00000000E+00  0.00000000E+00  0.00000000E+00
  0.00000000E+00  0.00000000E+00  0.00000000E+00
  0.00000000E+00  0.00000000E+00  0.00000000E+00
