Na2  La2  I8                            
   1.4500000000000000     
     6.6142735104654022    0.3532217800421267   -0.0175663190290428
    -2.3470315743583940    6.1940632295863312   -0.0174356441912850
    -2.1204240267023322   -3.2533383620843539    3.9457908537634796
  Na              La              I             
     2     2     8
Direct
  0.1228332279201254  0.8771559989778126  0.2500005534541501
  0.8771601173269801  0.1228303320680979  0.7499927007595772
  0.6252737427494637  0.3747104577955369  0.2499920350126246
  0.3747204452917714  0.6252856183912812  0.7500054565967815
  0.3835550853801166  0.9701765977024905  0.1302185578188428
  0.2539342003522052  0.3402396266812389  0.2258350631130810
  0.6597773549179848  0.7460679720328400  0.2741654771275606
  0.0298205063632935  0.6164401987085739  0.3697850875521951
  0.9701786803822898  0.3835612581911221  0.6302279058475690
  0.3402310058408702  0.2539330791869361  0.7258257464754507
  0.7460698131928609  0.6597744727975581  0.7741608398503885
  0.6164438542820463  0.0298234534665127  0.8697885963917713

  0.00000000E+00  0.00000000E+00  0.00000000E+00
  0.00000000E+00  0.00000000E+00  0.00000000E+00
  0.00000000E+00  0.00000000E+00  0.00000000E+00
  0.00000000E+00  0.00000000E+00  0.00000000E+00
  0.00000000E+00  0.00000000E+00  0.00000000E+00
  0.00000000E+00  0.00000000E+00  0.00000000E+00
  0.00000000E+00  0.00000000E+00  0.00000000E+00
  0.00000000E+00  0.00000000E+00  0.00000000E+00
  0.00000000E+00  0.00000000E+00  0.00000000E+00
  0.00000000E+00  0.00000000E+00  0.00000000E+00
  0.00000000E+00  0.00000000E+00  0.00000000E+00
  0.00000000E+00  0.00000000E+00  0.00000000E+00
