Na4  La4  I16                           
   1.3499999999999999     
     6.9116436723758268    0.0000000000000000    0.0000000000000000
     0.0000000000000000    6.9014761440132819    0.0000000000000000
     0.0000000000000000   -0.0000000000000000    9.1732816747839401
  I               La              Na            
    16     4     4
Direct
  0.5000000000000000  0.2498187458934211  0.0055248487903583
  0.0000000000000000  0.7498187458934211  0.0055248487903583
  0.2499852200362866  0.4961411738248955  0.2500000000000000
  0.7500147799637134  0.4961411738248955  0.2500000000000000
  0.2500147799637134  0.9961411738248955  0.2500000000000000
  0.7499852200362866  0.9961411738248955  0.2500000000000000
  0.5000000000000000  0.2498187458934211  0.4944751512096488
  0.0000000000000000  0.7498187458934211  0.4944751512096488
  0.0000000000000000  0.2501812541065789  0.5055248487903512
  0.5000000000000000  0.7501812541065789  0.5055248487903512
  0.2500147799637134  0.0038588261751045  0.7500000000000000
  0.7499852200362866  0.0038588261751045  0.7500000000000000
  0.2499852200362866  0.5038588261751045  0.7500000000000000
  0.7500147799637134  0.5038588261751045  0.7500000000000000
  0.0000000000000000  0.2501812541065789  0.9944751512096488
  0.5000000000000000  0.7501812541065789  0.9944751512096488
  0.5000000000000000  0.2451301513433037  0.2500000000000000
  0.0000000000000000  0.7451301513433037  0.2500000000000000
  0.0000000000000000  0.2548698486566963  0.7500000000000000
  0.5000000000000000  0.7548698486566963  0.7500000000000000
  0.0000000000000000  0.2451882535694168  0.2500000000000000
  0.5000000000000000  0.7451882535694168  0.2500000000000000
  0.5000000000000000  0.2548117464305832  0.7500000000000000
  0.0000000000000000  0.7548117464305832  0.7500000000000000

  0.00000000E+00  0.00000000E+00  0.00000000E+00
  0.00000000E+00  0.00000000E+00  0.00000000E+00
  0.00000000E+00  0.00000000E+00  0.00000000E+00
  0.00000000E+00  0.00000000E+00  0.00000000E+00
  0.00000000E+00  0.00000000E+00  0.00000000E+00
  0.00000000E+00  0.00000000E+00  0.00000000E+00
  0.00000000E+00  0.00000000E+00  0.00000000E+00
  0.00000000E+00  0.00000000E+00  0.00000000E+00
  0.00000000E+00  0.00000000E+00  0.00000000E+00
  0.00000000E+00  0.00000000E+00  0.00000000E+00
  0.00000000E+00  0.00000000E+00  0.00000000E+00
  0.00000000E+00  0.00000000E+00  0.00000000E+00
  0.00000000E+00  0.00000000E+00  0.00000000E+00
  0.00000000E+00  0.00000000E+00  0.00000000E+00
  0.00000000E+00  0.00000000E+00  0.00000000E+00
  0.00000000E+00  0.00000000E+00  0.00000000E+00
  0.00000000E+00  0.00000000E+00  0.00000000E+00
  0.00000000E+00  0.00000000E+00  0.00000000E+00
  0.00000000E+00  0.00000000E+00  0.00000000E+00
  0.00000000E+00  0.00000000E+00  0.00000000E+00
  0.00000000E+00  0.00000000E+00  0.00000000E+00
  0.00000000E+00  0.00000000E+00  0.00000000E+00
  0.00000000E+00  0.00000000E+00  0.00000000E+00
  0.00000000E+00  0.00000000E+00  0.00000000E+00
