Na15  La5  I30                          
   1.1000000000000001     
    -7.3841784631777649   -0.0037442414208346    0.0021737087643010
     3.6933347090420026    7.0738234551738977   -0.0269642908365383
    -0.0134085230989302   -2.6927636818339931  -30.4533023470347501
  Na              La              I             
    15     5    30
Direct
  0.5578322113328937  0.1155904190313706  0.9373086013538767
  0.2899037059346909  0.5782488811677311  0.8987503345400825
  0.1571369337171973  0.3149303649196185  0.7371888990866680
  0.8902088413332265  0.7787186144440810  0.6990921375352670
  0.8642362368820571  0.7277358384177930  0.8377809134720948
  0.7573100963036978  0.5149468169015776  0.5373840773803309
  0.4904785505771798  0.9786093354210976  0.4991585436918058
  0.4636725239912565  0.9277457004244454  0.6381680018739431
  0.3587387207623678  0.7144706230916427  0.3369758804022993
  0.1453597160242097  0.2794888939807549  0.1608947897714685
  0.0897634936696363  0.1779669981137459  0.3003478588084434
  0.0639661205765307  0.1278767779478400  0.4380700713932200
  0.6968459392748798  0.4011532556664719  0.0960764679716775
  0.6559499118789276  0.3235854335944666  0.2387676346826595
  0.2687691017024108  0.5210655076319028  0.0348372155010495
  0.9921798852066246  0.9887667473772694  0.9995849343467711
  0.7979540119065902  0.5958671319632458  0.4003612861254240
  0.5975110099779641  0.1955200213761543  0.7998845442717979
  0.1976626189866835  0.3955823882742564  0.5999567185544876
  0.4028627853873203  0.8038296986218043  0.1988853239224397
  0.3104076645536722  0.9134076317999984  0.8529628809352587
  0.2251366451790346  0.7864704940479896  0.9790116527354229
  0.7367916036874718  0.8473700733157941  0.9199389281975954
  0.8454850372494676  0.3861981373348797  0.8790973012043040
  0.4171917909408407  0.4478309813873906  0.8172586513201665
  0.9104006008747447  0.1137096083359381  0.6531296468312817
  0.3016140930276023  0.3003920825358080  0.9544082132403844
  0.8253580610253479  0.9882874663092736  0.7791709845279016
  0.3384274435072214  0.0477256190071884  0.7205759104530856
  0.4459828352390076  0.5858640187270865  0.6791172438548330
  0.0171600821556339  0.6477402371810044  0.6175269517100404
  0.5103806445706169  0.3136121702506784  0.4533753899024049
  0.9084325410903986  0.5080604878785593  0.7561602146904605
  0.4253740034635740  0.1881533376183526  0.5793259339892387
  0.9388380228652196  0.2480603623227253  0.5205872879889029
  0.0461958221696293  0.7862863386049881  0.4794801220114806
  0.6183102306799100  0.8488048839121944  0.4175509980100145
  0.1091817428302804  0.5061561973336524  0.2504543712509957
  0.5085318200113420  0.7082237326075216  0.5562876858527517
  0.0262691328766209  0.3890744912837647  0.3792139273256367
  0.5380642182526572  0.4480152794937027  0.3213463078125827
  0.6463263982547645  0.9849318388657835  0.2793845125998260
  0.2032576816765186  0.0376658056470518  0.2198608150728631
  0.7043254426261853  0.7136811888330001  0.0519145685924371
  0.1099510573840945  0.9067740407672389  0.3565203831202695
  0.5910296210025763  0.5625069561565041  0.1804472416481602
  0.1413627369099686  0.6156652415089852  0.1224955087558328
  0.2575594872181384  0.1792394342333310  0.0773332159356173
  0.8207711982891581  0.2478981931534534  0.0177940539813903
  0.7016999249619715  0.1168162211789223  0.1556768617630411

  0.00000000E+00  0.00000000E+00  0.00000000E+00
  0.00000000E+00  0.00000000E+00  0.00000000E+00
  0.00000000E+00  0.00000000E+00  0.00000000E+00
  0.00000000E+00  0.00000000E+00  0.00000000E+00
  0.00000000E+00  0.00000000E+00  0.00000000E+00
  0.00000000E+00  0.00000000E+00  0.00000000E+00
  0.00000000E+00  0.00000000E+00  0.00000000E+00
  0.00000000E+00  0.00000000E+00  0.00000000E+00
  0.00000000E+00  0.00000000E+00  0.00000000E+00
  0.00000000E+00  0.00000000E+00  0.00000000E+00
  0.00000000E+00  0.00000000E+00  0.00000000E+00
  0.00000000E+00  0.00000000E+00  0.00000000E+00
  0.00000000E+00  0.00000000E+00  0.00000000E+00
  0.00000000E+00  0.00000000E+00  0.00000000E+00
  0.00000000E+00  0.00000000E+00  0.00000000E+00
  0.00000000E+00  0.00000000E+00  0.00000000E+00
  0.00000000E+00  0.00000000E+00  0.00000000E+00
  0.00000000E+00  0.00000000E+00  0.00000000E+00
  0.00000000E+00  0.00000000E+00  0.00000000E+00
  0.00000000E+00  0.00000000E+00  0.00000000E+00
  0.00000000E+00  0.00000000E+00  0.00000000E+00
  0.00000000E+00  0.00000000E+00  0.00000000E+00
  0.00000000E+00  0.00000000E+00  0.00000000E+00
  0.00000000E+00  0.00000000E+00  0.00000000E+00
  0.00000000E+00  0.00000000E+00  0.00000000E+00
  0.00000000E+00  0.00000000E+00  0.00000000E+00
  0.00000000E+00  0.00000000E+00  0.00000000E+00
  0.00000000E+00  0.00000000E+00  0.00000000E+00
  0.00000000E+00  0.00000000E+00  0.00000000E+00
  0.00000000E+00  0.00000000E+00  0.00000000E+00
  0.00000000E+00  0.00000000E+00  0.00000000E+00
  0.00000000E+00  0.00000000E+00  0.00000000E+00
  0.00000000E+00  0.00000000E+00  0.00000000E+00
  0.00000000E+00  0.00000000E+00  0.00000000E+00
  0.00000000E+00  0.00000000E+00  0.00000000E+00
  0.00000000E+00  0.00000000E+00  0.00000000E+00
  0.00000000E+00  0.00000000E+00  0.00000000E+00
  0.00000000E+00  0.00000000E+00  0.00000000E+00
  0.00000000E+00  0.00000000E+00  0.00000000E+00
  0.00000000E+00  0.00000000E+00  0.00000000E+00
  0.00000000E+00  0.00000000E+00  0.00000000E+00
  0.00000000E+00  0.00000000E+00  0.00000000E+00
  0.00000000E+00  0.00000000E+00  0.00000000E+00
  0.00000000E+00  0.00000000E+00  0.00000000E+00
  0.00000000E+00  0.00000000E+00  0.00000000E+00
  0.00000000E+00  0.00000000E+00  0.00000000E+00
  0.00000000E+00  0.00000000E+00  0.00000000E+00
  0.00000000E+00  0.00000000E+00  0.00000000E+00
  0.00000000E+00  0.00000000E+00  0.00000000E+00
  0.00000000E+00  0.00000000E+00  0.00000000E+00
