Na2  La2  I8                            
   1.2000000000000000     
     6.5880420972116269    0.0491047906898356    0.0743274228027097
     1.3400370537046760    6.5470096640684732   -0.0569773782559293
     0.3211611899544689   -0.0481013783993058    6.8840263323097535
  Na              La              I             
     2     2     8
Direct
  0.2299411320031055  0.1679355013884347  0.5568893086961140
  0.7700588679968945  0.8320644986115653  0.4431106913038860
  0.7903727934674833  0.3047748050916681  0.0566862967273210
  0.2096272065325167  0.6952251949083319  0.9433137032726790
  0.5890410024811672  0.2124267068692944  0.3702026497129864
  0.4109589975188328  0.7875732931307056  0.6297973502870207
  0.0939470540864917  0.0099842326214556  0.2124123781321927
  0.9060529459135083  0.9900157673785444  0.7875876218678144
  0.0402211540037030  0.5132293057290269  0.2505371509443037
  0.9597788459962970  0.4867706942709802  0.7494628490556963
  0.5618545379024837  0.6920035345595039  0.1207650928686164
  0.4381454620975163  0.3079964654404961  0.8792349071313836

  0.00000000E+00  0.00000000E+00  0.00000000E+00
  0.00000000E+00  0.00000000E+00  0.00000000E+00
  0.00000000E+00  0.00000000E+00  0.00000000E+00
  0.00000000E+00  0.00000000E+00  0.00000000E+00
  0.00000000E+00  0.00000000E+00  0.00000000E+00
  0.00000000E+00  0.00000000E+00  0.00000000E+00
  0.00000000E+00  0.00000000E+00  0.00000000E+00
  0.00000000E+00  0.00000000E+00  0.00000000E+00
  0.00000000E+00  0.00000000E+00  0.00000000E+00
  0.00000000E+00  0.00000000E+00  0.00000000E+00
  0.00000000E+00  0.00000000E+00  0.00000000E+00
  0.00000000E+00  0.00000000E+00  0.00000000E+00
