Na12  La4  I24                          
   1.2500000000000000     
     6.4789350165249031    0.0000000000000000   -0.0000104789716629
     0.0000000000000000   11.2206314532319453    0.0000000000000000
    -0.0000692701172612    0.0000000000000000   12.0269472411766998
  I               Na              La            
    24    12     4
Direct
  0.6434735424034272  0.3274966784302293  0.1226691927432242
  0.1434837041340487  0.8275338208642182  0.1226621655526117
  0.6694913075485474  0.0145174357656828  0.1226822720886531
  0.1694672359672040  0.5145385333701427  0.1226939968663530
  0.1870596306716337  0.1580190721781207  0.1226967072731071
  0.6870619836107181  0.6580422135834780  0.1226952956652525
  0.8129403693283663  0.1580190721781207  0.3773032927268929
  0.3129380163892819  0.6580422135834780  0.3773047043347475
  0.3305086924514526  0.0145174357656828  0.3773177279113469
  0.8305327640327960  0.5145385333701427  0.3773060031336470
  0.3565264575965728  0.3274966784302293  0.3773308072567758
  0.8565162958659513  0.8275338208642182  0.3773378344473883
  0.1434837041340487  0.1724661791357818  0.6226621655526117
  0.6434735424034272  0.6725033215697707  0.6226691927432242
  0.1694672359672040  0.4854614666298573  0.6226939968663530
  0.6694913075485474  0.9854825642343172  0.6226822720886531
  0.6870619836107181  0.3419577864165220  0.6226952956652525
  0.1870596306716337  0.8419809278218793  0.6226967072731071
  0.3129380163892819  0.3419577864165220  0.8773047043347475
  0.8129403693283663  0.8419809278218793  0.8773032927268929
  0.8305327640327960  0.4854614666298573  0.8773060031336470
  0.3305086924514526  0.9854825642343172  0.8773177279113469
  0.8565162958659513  0.1724661791357818  0.8773378344473883
  0.3565264575965728  0.6725033215697707  0.8773308072567758
  0.9999755479784938  0.3333178982552170  0.0279650880768969
  0.4999702006644569  0.8333388637563246  0.0279635360903470
  0.0000000000000000  0.0000339537450103  0.2500000000000000
  0.5000000000000000  0.5000354020026023  0.2500000000000000
  0.0000244520215134  0.3333178982552170  0.4720349119230960
  0.5000297993355431  0.8333388637563246  0.4720364639096530
  0.4999702006644569  0.1666611362436754  0.5279635360903470
  0.9999755479784938  0.6666821017447830  0.5279650880768969
  0.0000000000000000  0.9999660462549897  0.7500000000000000
  0.5000000000000000  0.4999645979973977  0.7500000000000000
  0.5000297993355431  0.1666611362436754  0.9720364639096530
  0.0000244520215134  0.6666821017447830  0.9720349119231031
  0.5000000000000000  0.1666638477551103  0.2500000000000000
  0.0000000000000000  0.6666953731182303  0.2500000000000000
  0.0000000000000000  0.3333046268817625  0.7500000000000000
  0.5000000000000000  0.8333361522448897  0.7500000000000000

  0.00000000E+00  0.00000000E+00  0.00000000E+00
  0.00000000E+00  0.00000000E+00  0.00000000E+00
  0.00000000E+00  0.00000000E+00  0.00000000E+00
  0.00000000E+00  0.00000000E+00  0.00000000E+00
  0.00000000E+00  0.00000000E+00  0.00000000E+00
  0.00000000E+00  0.00000000E+00  0.00000000E+00
  0.00000000E+00  0.00000000E+00  0.00000000E+00
  0.00000000E+00  0.00000000E+00  0.00000000E+00
  0.00000000E+00  0.00000000E+00  0.00000000E+00
  0.00000000E+00  0.00000000E+00  0.00000000E+00
  0.00000000E+00  0.00000000E+00  0.00000000E+00
  0.00000000E+00  0.00000000E+00  0.00000000E+00
  0.00000000E+00  0.00000000E+00  0.00000000E+00
  0.00000000E+00  0.00000000E+00  0.00000000E+00
  0.00000000E+00  0.00000000E+00  0.00000000E+00
  0.00000000E+00  0.00000000E+00  0.00000000E+00
  0.00000000E+00  0.00000000E+00  0.00000000E+00
  0.00000000E+00  0.00000000E+00  0.00000000E+00
  0.00000000E+00  0.00000000E+00  0.00000000E+00
  0.00000000E+00  0.00000000E+00  0.00000000E+00
  0.00000000E+00  0.00000000E+00  0.00000000E+00
  0.00000000E+00  0.00000000E+00  0.00000000E+00
  0.00000000E+00  0.00000000E+00  0.00000000E+00
  0.00000000E+00  0.00000000E+00  0.00000000E+00
  0.00000000E+00  0.00000000E+00  0.00000000E+00
  0.00000000E+00  0.00000000E+00  0.00000000E+00
  0.00000000E+00  0.00000000E+00  0.00000000E+00
  0.00000000E+00  0.00000000E+00  0.00000000E+00
  0.00000000E+00  0.00000000E+00  0.00000000E+00
  0.00000000E+00  0.00000000E+00  0.00000000E+00
  0.00000000E+00  0.00000000E+00  0.00000000E+00
  0.00000000E+00  0.00000000E+00  0.00000000E+00
  0.00000000E+00  0.00000000E+00  0.00000000E+00
  0.00000000E+00  0.00000000E+00  0.00000000E+00
  0.00000000E+00  0.00000000E+00  0.00000000E+00
  0.00000000E+00  0.00000000E+00  0.00000000E+00
  0.00000000E+00  0.00000000E+00  0.00000000E+00
  0.00000000E+00  0.00000000E+00  0.00000000E+00
  0.00000000E+00  0.00000000E+00  0.00000000E+00
  0.00000000E+00  0.00000000E+00  0.00000000E+00
